NAME          p500x2988d
ROWS
 N  OBJ.....
 E  CNS..001
 E  CNS..002
 E  CNS..003
 E  CNS..004
 E  CNS..005
 E  CNS..006
 E  CNS..007
 E  CNS..008
 E  CNS..009
 E  CNS..010
 E  CNS..011
 E  CNS..012
 E  CNS..013
 E  CNS..014
 E  CNS..015
 E  CNS..016
 E  CNS..017
 E  CNS..018
 E  CNS..019
 E  CNS..020
 E  CNS..021
 E  CNS..022
 E  CNS..023
 E  CNS..024
 E  CNS..025
 E  CNS..026
 E  CNS..027
 E  CNS..028
 E  CNS..029
 E  CNS..030
 E  CNS..031
 E  CNS..032
 E  CNS..033
 E  CNS..034
 E  CNS..035
 E  CNS..036
 E  CNS..037
 E  CNS..038
 E  CNS..039
 E  CNS..040
 E  CNS..041
 E  CNS..042
 E  CNS..043
 E  CNS..044
 E  CNS..045
 E  CNS..046
 E  CNS..047
 E  CNS..048
 E  CNS..049
 E  CNS..050
 E  CNS..051
 E  CNS..052
 E  CNS..053
 E  CNS..054
 E  CNS..055
 E  CNS..056
 E  CNS..057
 E  CNS..058
 E  CNS..059
 E  CNS..060
 E  CNS..061
 E  CNS..062
 E  CNS..063
 E  CNS..064
 E  CNS..065
 E  CNS..066
 E  CNS..067
 E  CNS..068
 E  CNS..069
 E  CNS..070
 E  CNS..071
 E  CNS..072
 E  CNS..073
 E  CNS..074
 E  CNS..075
 E  CNS..076
 E  CNS..077
 E  CNS..078
 E  CNS..079
 E  CNS..080
 E  CNS..081
 E  CNS..082
 E  CNS..083
 E  CNS..084
 E  CNS..085
 E  CNS..086
 E  CNS..087
 E  CNS..088
 E  CNS..089
 E  CNS..090
 E  CNS..091
 E  CNS..092
 E  CNS..093
 E  CNS..094
 E  CNS..095
 E  CNS..096
 E  CNS..097
 E  CNS..098
 E  CNS..099
 E  CNS..100
 E  CNS..101
 E  CNS..102
 E  CNS..103
 E  CNS..104
 E  CNS..105
 E  CNS..106
 E  CNS..107
 E  CNS..108
 E  CNS..109
 E  CNS..110
 E  CNS..111
 E  CNS..112
 E  CNS..113
 E  CNS..114
 E  CNS..115
 E  CNS..116
 E  CNS..117
 E  CNS..118
 E  CNS..119
 E  CNS..120
 E  CNS..121
 E  CNS..122
 E  CNS..123
 E  CNS..124
 E  CNS..125
 E  CNS..126
 E  CNS..127
 E  CNS..128
 E  CNS..129
 E  CNS..130
 E  CNS..131
 E  CNS..132
 E  CNS..133
 E  CNS..134
 E  CNS..135
 E  CNS..136
 E  CNS..137
 E  CNS..138
 E  CNS..139
 E  CNS..140
 E  CNS..141
 E  CNS..142
 E  CNS..143
 E  CNS..144
 E  CNS..145
 E  CNS..146
 E  CNS..147
 E  CNS..148
 E  CNS..149
 E  CNS..150
 E  CNS..151
 E  CNS..152
 E  CNS..153
 E  CNS..154
 E  CNS..155
 E  CNS..156
 E  CNS..157
 E  CNS..158
 E  CNS..159
 E  CNS..160
 E  CNS..161
 E  CNS..162
 E  CNS..163
 E  CNS..164
 E  CNS..165
 E  CNS..166
 E  CNS..167
 E  CNS..168
 E  CNS..169
 E  CNS..170
 E  CNS..171
 E  CNS..172
 E  CNS..173
 E  CNS..174
 E  CNS..175
 E  CNS..176
 E  CNS..177
 E  CNS..178
 E  CNS..179
 E  CNS..180
 E  CNS..181
 E  CNS..182
 E  CNS..183
 E  CNS..184
 E  CNS..185
 E  CNS..186
 E  CNS..187
 E  CNS..188
 E  CNS..189
 E  CNS..190
 E  CNS..191
 E  CNS..192
 E  CNS..193
 E  CNS..194
 E  CNS..195
 E  CNS..196
 E  CNS..197
 E  CNS..198
 E  CNS..199
 E  CNS..200
 E  CNS..201
 E  CNS..202
 E  CNS..203
 E  CNS..204
 E  CNS..205
 E  CNS..206
 E  CNS..207
 E  CNS..208
 E  CNS..209
 E  CNS..210
 E  CNS..211
 E  CNS..212
 E  CNS..213
 E  CNS..214
 E  CNS..215
 E  CNS..216
 E  CNS..217
 E  CNS..218
 E  CNS..219
 E  CNS..220
 E  CNS..221
 E  CNS..222
 E  CNS..223
 E  CNS..224
 E  CNS..225
 E  CNS..226
 E  CNS..227
 E  CNS..228
 E  CNS..229
 E  CNS..230
 E  CNS..231
 E  CNS..232
 E  CNS..233
 E  CNS..234
 E  CNS..235
 E  CNS..236
 E  CNS..237
 E  CNS..238
 E  CNS..239
 E  CNS..240
 E  CNS..241
 E  CNS..242
 E  CNS..243
 E  CNS..244
 E  CNS..245
 E  CNS..246
 E  CNS..247
 E  CNS..248
 E  CNS..249
 E  CNS..250
 E  CNS..251
 E  CNS..252
 E  CNS..253
 E  CNS..254
 E  CNS..255
 E  CNS..256
 E  CNS..257
 E  CNS..258
 E  CNS..259
 E  CNS..260
 E  CNS..261
 E  CNS..262
 E  CNS..263
 E  CNS..264
 E  CNS..265
 E  CNS..266
 E  CNS..267
 E  CNS..268
 E  CNS..269
 E  CNS..270
 E  CNS..271
 E  CNS..272
 E  CNS..273
 E  CNS..274
 E  CNS..275
 E  CNS..276
 E  CNS..277
 E  CNS..278
 E  CNS..279
 E  CNS..280
 E  CNS..281
 E  CNS..282
 E  CNS..283
 E  CNS..284
 E  CNS..285
 E  CNS..286
 E  CNS..287
 E  CNS..288
 E  CNS..289
 E  CNS..290
 E  CNS..291
 E  CNS..292
 E  CNS..293
 E  CNS..294
 E  CNS..295
 E  CNS..296
 E  CNS..297
 E  CNS..298
 E  CNS..299
 E  CNS..300
 E  CNS..301
 E  CNS..302
 E  CNS..303
 E  CNS..304
 E  CNS..305
 E  CNS..306
 E  CNS..307
 E  CNS..308
 E  CNS..309
 E  CNS..310
 E  CNS..311
 E  CNS..312
 E  CNS..313
 E  CNS..314
 E  CNS..315
 E  CNS..316
 E  CNS..317
 E  CNS..318
 E  CNS..319
 E  CNS..320
 E  CNS..321
 E  CNS..322
 E  CNS..323
 E  CNS..324
 E  CNS..325
 E  CNS..326
 E  CNS..327
 E  CNS..328
 E  CNS..329
 E  CNS..330
 E  CNS..331
 E  CNS..332
 E  CNS..333
 E  CNS..334
 E  CNS..335
 E  CNS..336
 E  CNS..337
 E  CNS..338
 E  CNS..339
 E  CNS..340
 E  CNS..341
 E  CNS..342
 E  CNS..343
 E  CNS..344
 E  CNS..345
 E  CNS..346
 E  CNS..347
 E  CNS..348
 E  CNS..349
 E  CNS..350
 E  CNS..351
 E  CNS..352
 E  CNS..353
 E  CNS..354
 E  CNS..355
 E  CNS..356
 E  CNS..357
 E  CNS..358
 E  CNS..359
 E  CNS..360
 E  CNS..361
 E  CNS..362
 E  CNS..363
 E  CNS..364
 E  CNS..365
 E  CNS..366
 E  CNS..367
 E  CNS..368
 E  CNS..369
 E  CNS..370
 E  CNS..371
 E  CNS..372
 E  CNS..373
 E  CNS..374
 E  CNS..375
 E  CNS..376
 E  CNS..377
 E  CNS..378
 E  CNS..379
 E  CNS..380
 E  CNS..381
 E  CNS..382
 E  CNS..383
 E  CNS..384
 E  CNS..385
 E  CNS..386
 E  CNS..387
 E  CNS..388
 E  CNS..389
 E  CNS..390
 E  CNS..391
 E  CNS..392
 E  CNS..393
 E  CNS..394
 E  CNS..395
 E  CNS..396
 E  CNS..397
 E  CNS..398
 E  CNS..399
 E  CNS..400
 E  CNS..401
 E  CNS..402
 E  CNS..403
 E  CNS..404
 E  CNS..405
 E  CNS..406
 E  CNS..407
 E  CNS..408
 E  CNS..409
 E  CNS..410
 E  CNS..411
 E  CNS..412
 E  CNS..413
 E  CNS..414
 E  CNS..415
 E  CNS..416
 E  CNS..417
 E  CNS..418
 E  CNS..419
 E  CNS..420
 E  CNS..421
 E  CNS..422
 E  CNS..423
 E  CNS..424
 E  CNS..425
 E  CNS..426
 E  CNS..427
 E  CNS..428
 E  CNS..429
 E  CNS..430
 E  CNS..431
 E  CNS..432
 E  CNS..433
 E  CNS..434
 E  CNS..435
 E  CNS..436
 E  CNS..437
 E  CNS..438
 E  CNS..439
 E  CNS..440
 E  CNS..441
 E  CNS..442
 E  CNS..443
 E  CNS..444
 E  CNS..445
 E  CNS..446
 E  CNS..447
 E  CNS..448
 E  CNS..449
 E  CNS..450
 E  CNS..451
 E  CNS..452
 E  CNS..453
 E  CNS..454
 E  CNS..455
 E  CNS..456
 E  CNS..457
 E  CNS..458
 E  CNS..459
 E  CNS..460
 E  CNS..461
 E  CNS..462
 E  CNS..463
 E  CNS..464
 E  CNS..465
 E  CNS..466
 E  CNS..467
 E  CNS..468
 E  CNS..469
 E  CNS..470
 E  CNS..471
 E  CNS..472
 E  CNS..473
 E  CNS..474
 E  CNS..475
 E  CNS..476
 E  CNS..477
 E  CNS..478
 E  CNS..479
 E  CNS..480
 E  CNS..481
 E  CNS..482
 E  CNS..483
 E  CNS..484
 E  CNS..485
 E  CNS..486
 E  CNS..487
 E  CNS..488
 E  CNS..489
 E  CNS..490
 E  CNS..491
 E  CNS..492
 E  CNS..493
 E  CNS..494
 E  CNS..495
 E  CNS..496
 E  CNS..497
 E  CNS..498
 E  CNS..499
 E  CNS..500
 L  UC..0001
 L  UC..0002
 L  UC..0003
 L  UC..0004
 L  UC..0005
 L  UC..0006
 L  UC..0007
 L  UC..0008
 L  UC..0009
 L  UC..0010
 L  UC..0011
 L  UC..0012
 L  UC..0013
 L  UC..0014
 L  UC..0015
 L  UC..0016
 L  UC..0017
 L  UC..0018
 L  UC..0019
 L  UC..0020
 L  UC..0021
 L  UC..0022
 L  UC..0023
 L  UC..0024
 L  UC..0025
 L  UC..0026
 L  UC..0027
 L  UC..0028
 L  UC..0029
 L  UC..0030
 L  UC..0031
 L  UC..0032
 L  UC..0033
 L  UC..0034
 L  UC..0035
 L  UC..0036
 L  UC..0037
 L  UC..0038
 L  UC..0039
 L  UC..0040
 L  UC..0041
 L  UC..0042
 L  UC..0043
 L  UC..0044
 L  UC..0045
 L  UC..0046
 L  UC..0047
 L  UC..0048
 L  UC..0049
 L  UC..0050
 L  UC..0051
 L  UC..0052
 L  UC..0053
 L  UC..0054
 L  UC..0055
 L  UC..0056
 L  UC..0057
 L  UC..0058
 L  UC..0059
 L  UC..0060
 L  UC..0061
 L  UC..0062
 L  UC..0063
 L  UC..0064
 L  UC..0065
 L  UC..0066
 L  UC..0067
 L  UC..0068
 L  UC..0069
 L  UC..0070
 L  UC..0071
 L  UC..0072
 L  UC..0073
 L  UC..0074
 L  UC..0075
 L  UC..0076
 L  UC..0077
 L  UC..0078
 L  UC..0079
 L  UC..0080
 L  UC..0081
 L  UC..0082
 L  UC..0083
 L  UC..0084
 L  UC..0085
 L  UC..0086
 L  UC..0087
 L  UC..0088
 L  UC..0089
 L  UC..0090
 L  UC..0091
 L  UC..0092
 L  UC..0093
 L  UC..0094
 L  UC..0095
 L  UC..0096
 L  UC..0097
 L  UC..0098
 L  UC..0099
 L  UC..0100
 L  UC..0101
 L  UC..0102
 L  UC..0103
 L  UC..0104
 L  UC..0105
 L  UC..0106
 L  UC..0107
 L  UC..0108
 L  UC..0109
 L  UC..0110
 L  UC..0111
 L  UC..0112
 L  UC..0113
 L  UC..0114
 L  UC..0115
 L  UC..0116
 L  UC..0117
 L  UC..0118
 L  UC..0119
 L  UC..0120
 L  UC..0121
 L  UC..0122
 L  UC..0123
 L  UC..0124
 L  UC..0125
 L  UC..0126
 L  UC..0127
 L  UC..0128
 L  UC..0129
 L  UC..0130
 L  UC..0131
 L  UC..0132
 L  UC..0133
 L  UC..0134
 L  UC..0135
 L  UC..0136
 L  UC..0137
 L  UC..0138
 L  UC..0139
 L  UC..0140
 L  UC..0141
 L  UC..0142
 L  UC..0143
 L  UC..0144
 L  UC..0145
 L  UC..0146
 L  UC..0147
 L  UC..0148
 L  UC..0149
 L  UC..0150
 L  UC..0151
 L  UC..0152
 L  UC..0153
 L  UC..0154
 L  UC..0155
 L  UC..0156
 L  UC..0157
 L  UC..0158
 L  UC..0159
 L  UC..0160
 L  UC..0161
 L  UC..0162
 L  UC..0163
 L  UC..0164
 L  UC..0165
 L  UC..0166
 L  UC..0167
 L  UC..0168
 L  UC..0169
 L  UC..0170
 L  UC..0171
 L  UC..0172
 L  UC..0173
 L  UC..0174
 L  UC..0175
 L  UC..0176
 L  UC..0177
 L  UC..0178
 L  UC..0179
 L  UC..0180
 L  UC..0181
 L  UC..0182
 L  UC..0183
 L  UC..0184
 L  UC..0185
 L  UC..0186
 L  UC..0187
 L  UC..0188
 L  UC..0189
 L  UC..0190
 L  UC..0191
 L  UC..0192
 L  UC..0193
 L  UC..0194
 L  UC..0195
 L  UC..0196
 L  UC..0197
 L  UC..0198
 L  UC..0199
 L  UC..0200
 L  UC..0201
 L  UC..0202
 L  UC..0203
 L  UC..0204
 L  UC..0205
 L  UC..0206
 L  UC..0207
 L  UC..0208
 L  UC..0209
 L  UC..0210
 L  UC..0211
 L  UC..0212
 L  UC..0213
 L  UC..0214
 L  UC..0215
 L  UC..0216
 L  UC..0217
 L  UC..0218
 L  UC..0219
 L  UC..0220
 L  UC..0221
 L  UC..0222
 L  UC..0223
 L  UC..0224
 L  UC..0225
 L  UC..0226
 L  UC..0227
 L  UC..0228
 L  UC..0229
 L  UC..0230
 L  UC..0231
 L  UC..0232
 L  UC..0233
 L  UC..0234
 L  UC..0235
 L  UC..0236
 L  UC..0237
 L  UC..0238
 L  UC..0239
 L  UC..0240
 L  UC..0241
 L  UC..0242
 L  UC..0243
 L  UC..0244
 L  UC..0245
 L  UC..0246
 L  UC..0247
 L  UC..0248
 L  UC..0249
 L  UC..0250
 L  UC..0251
 L  UC..0252
 L  UC..0253
 L  UC..0254
 L  UC..0255
 L  UC..0256
 L  UC..0257
 L  UC..0258
 L  UC..0259
 L  UC..0260
 L  UC..0261
 L  UC..0262
 L  UC..0263
 L  UC..0264
 L  UC..0265
 L  UC..0266
 L  UC..0267
 L  UC..0268
 L  UC..0269
 L  UC..0270
 L  UC..0271
 L  UC..0272
 L  UC..0273
 L  UC..0274
 L  UC..0275
 L  UC..0276
 L  UC..0277
 L  UC..0278
 L  UC..0279
 L  UC..0280
 L  UC..0281
 L  UC..0282
 L  UC..0283
 L  UC..0284
 L  UC..0285
 L  UC..0286
 L  UC..0287
 L  UC..0288
 L  UC..0289
 L  UC..0290
 L  UC..0291
 L  UC..0292
 L  UC..0293
 L  UC..0294
 L  UC..0295
 L  UC..0296
 L  UC..0297
 L  UC..0298
 L  UC..0299
 L  UC..0300
 L  UC..0301
 L  UC..0302
 L  UC..0303
 L  UC..0304
 L  UC..0305
 L  UC..0306
 L  UC..0307
 L  UC..0308
 L  UC..0309
 L  UC..0310
 L  UC..0311
 L  UC..0312
 L  UC..0313
 L  UC..0314
 L  UC..0315
 L  UC..0316
 L  UC..0317
 L  UC..0318
 L  UC..0319
 L  UC..0320
 L  UC..0321
 L  UC..0322
 L  UC..0323
 L  UC..0324
 L  UC..0325
 L  UC..0326
 L  UC..0327
 L  UC..0328
 L  UC..0329
 L  UC..0330
 L  UC..0331
 L  UC..0332
 L  UC..0333
 L  UC..0334
 L  UC..0335
 L  UC..0336
 L  UC..0337
 L  UC..0338
 L  UC..0339
 L  UC..0340
 L  UC..0341
 L  UC..0342
 L  UC..0343
 L  UC..0344
 L  UC..0345
 L  UC..0346
 L  UC..0347
 L  UC..0348
 L  UC..0349
 L  UC..0350
 L  UC..0351
 L  UC..0352
 L  UC..0353
 L  UC..0354
 L  UC..0355
 L  UC..0356
 L  UC..0357
 L  UC..0358
 L  UC..0359
 L  UC..0360
 L  UC..0361
 L  UC..0362
 L  UC..0363
 L  UC..0364
 L  UC..0365
 L  UC..0366
 L  UC..0367
 L  UC..0368
 L  UC..0369
 L  UC..0370
 L  UC..0371
 L  UC..0372
 L  UC..0373
 L  UC..0374
 L  UC..0375
 L  UC..0376
 L  UC..0377
 L  UC..0378
 L  UC..0379
 L  UC..0380
 L  UC..0381
 L  UC..0382
 L  UC..0383
 L  UC..0384
 L  UC..0385
 L  UC..0386
 L  UC..0387
 L  UC..0388
 L  UC..0389
 L  UC..0390
 L  UC..0391
 L  UC..0392
 L  UC..0393
 L  UC..0394
 L  UC..0395
 L  UC..0396
 L  UC..0397
 L  UC..0398
 L  UC..0399
 L  UC..0400
 L  UC..0401
 L  UC..0402
 L  UC..0403
 L  UC..0404
 L  UC..0405
 L  UC..0406
 L  UC..0407
 L  UC..0408
 L  UC..0409
 L  UC..0410
 L  UC..0411
 L  UC..0412
 L  UC..0413
 L  UC..0414
 L  UC..0415
 L  UC..0416
 L  UC..0417
 L  UC..0418
 L  UC..0419
 L  UC..0420
 L  UC..0421
 L  UC..0422
 L  UC..0423
 L  UC..0424
 L  UC..0425
 L  UC..0426
 L  UC..0427
 L  UC..0428
 L  UC..0429
 L  UC..0430
 L  UC..0431
 L  UC..0432
 L  UC..0433
 L  UC..0434
 L  UC..0435
 L  UC..0436
 L  UC..0437
 L  UC..0438
 L  UC..0439
 L  UC..0440
 L  UC..0441
 L  UC..0442
 L  UC..0443
 L  UC..0444
 L  UC..0445
 L  UC..0446
 L  UC..0447
 L  UC..0448
 L  UC..0449
 L  UC..0450
 L  UC..0451
 L  UC..0452
 L  UC..0453
 L  UC..0454
 L  UC..0455
 L  UC..0456
 L  UC..0457
 L  UC..0458
 L  UC..0459
 L  UC..0460
 L  UC..0461
 L  UC..0462
 L  UC..0463
 L  UC..0464
 L  UC..0465
 L  UC..0466
 L  UC..0467
 L  UC..0468
 L  UC..0469
 L  UC..0470
 L  UC..0471
 L  UC..0472
 L  UC..0473
 L  UC..0474
 L  UC..0475
 L  UC..0476
 L  UC..0477
 L  UC..0478
 L  UC..0479
 L  UC..0480
 L  UC..0481
 L  UC..0482
 L  UC..0483
 L  UC..0484
 L  UC..0485
 L  UC..0486
 L  UC..0487
 L  UC..0488
 L  UC..0489
 L  UC..0490
 L  UC..0491
 L  UC..0492
 L  UC..0493
 L  UC..0494
 L  UC..0495
 L  UC..0496
 L  UC..0497
 L  UC..0498
 L  UC..0499
 L  UC..0500
 L  UC..0501
 L  UC..0502
 L  UC..0503
 L  UC..0504
 L  UC..0505
 L  UC..0506
 L  UC..0507
 L  UC..0508
 L  UC..0509
 L  UC..0510
 L  UC..0511
 L  UC..0512
 L  UC..0513
 L  UC..0514
 L  UC..0515
 L  UC..0516
 L  UC..0517
 L  UC..0518
 L  UC..0519
 L  UC..0520
 L  UC..0521
 L  UC..0522
 L  UC..0523
 L  UC..0524
 L  UC..0525
 L  UC..0526
 L  UC..0527
 L  UC..0528
 L  UC..0529
 L  UC..0530
 L  UC..0531
 L  UC..0532
 L  UC..0533
 L  UC..0534
 L  UC..0535
 L  UC..0536
 L  UC..0537
 L  UC..0538
 L  UC..0539
 L  UC..0540
 L  UC..0541
 L  UC..0542
 L  UC..0543
 L  UC..0544
 L  UC..0545
 L  UC..0546
 L  UC..0547
 L  UC..0548
 L  UC..0549
 L  UC..0550
 L  UC..0551
 L  UC..0552
 L  UC..0553
 L  UC..0554
 L  UC..0555
 L  UC..0556
 L  UC..0557
 L  UC..0558
 L  UC..0559
 L  UC..0560
 L  UC..0561
 L  UC..0562
 L  UC..0563
 L  UC..0564
 L  UC..0565
 L  UC..0566
 L  UC..0567
 L  UC..0568
 L  UC..0569
 L  UC..0570
 L  UC..0571
 L  UC..0572
 L  UC..0573
 L  UC..0574
 L  UC..0575
 L  UC..0576
 L  UC..0577
 L  UC..0578
 L  UC..0579
 L  UC..0580
 L  UC..0581
 L  UC..0582
 L  UC..0583
 L  UC..0584
 L  UC..0585
 L  UC..0586
 L  UC..0587
 L  UC..0588
 L  UC..0589
 L  UC..0590
 L  UC..0591
 L  UC..0592
 L  UC..0593
 L  UC..0594
 L  UC..0595
 L  UC..0596
 L  UC..0597
 L  UC..0598
 L  UC..0599
 L  UC..0600
 L  UC..0601
 L  UC..0602
 L  UC..0603
 L  UC..0604
 L  UC..0605
 L  UC..0606
 L  UC..0607
 L  UC..0608
 L  UC..0609
 L  UC..0610
 L  UC..0611
 L  UC..0612
 L  UC..0613
 L  UC..0614
 L  UC..0615
 L  UC..0616
 L  UC..0617
 L  UC..0618
 L  UC..0619
 L  UC..0620
 L  UC..0621
 L  UC..0622
 L  UC..0623
 L  UC..0624
 L  UC..0625
 L  UC..0626
 L  UC..0627
 L  UC..0628
 L  UC..0629
 L  UC..0630
 L  UC..0631
 L  UC..0632
 L  UC..0633
 L  UC..0634
 L  UC..0635
 L  UC..0636
 L  UC..0637
 L  UC..0638
 L  UC..0639
 L  UC..0640
 L  UC..0641
 L  UC..0642
 L  UC..0643
 L  UC..0644
 L  UC..0645
 L  UC..0646
 L  UC..0647
 L  UC..0648
 L  UC..0649
 L  UC..0650
 L  UC..0651
 L  UC..0652
 L  UC..0653
 L  UC..0654
 L  UC..0655
 L  UC..0656
 L  UC..0657
 L  UC..0658
 L  UC..0659
 L  UC..0660
 L  UC..0661
 L  UC..0662
 L  UC..0663
 L  UC..0664
 L  UC..0665
 L  UC..0666
 L  UC..0667
 L  UC..0668
 L  UC..0669
 L  UC..0670
 L  UC..0671
 L  UC..0672
 L  UC..0673
 L  UC..0674
 L  UC..0675
 L  UC..0676
 L  UC..0677
 L  UC..0678
 L  UC..0679
 L  UC..0680
 L  UC..0681
 L  UC..0682
 L  UC..0683
 L  UC..0684
 L  UC..0685
 L  UC..0686
 L  UC..0687
 L  UC..0688
 L  UC..0689
 L  UC..0690
 L  UC..0691
 L  UC..0692
 L  UC..0693
 L  UC..0694
 L  UC..0695
 L  UC..0696
 L  UC..0697
 L  UC..0698
 L  UC..0699
 L  UC..0700
 L  UC..0701
 L  UC..0702
 L  UC..0703
 L  UC..0704
 L  UC..0705
 L  UC..0706
 L  UC..0707
 L  UC..0708
 L  UC..0709
 L  UC..0710
 L  UC..0711
 L  UC..0712
 L  UC..0713
 L  UC..0714
 L  UC..0715
 L  UC..0716
 L  UC..0717
 L  UC..0718
 L  UC..0719
 L  UC..0720
 L  UC..0721
 L  UC..0722
 L  UC..0723
 L  UC..0724
 L  UC..0725
 L  UC..0726
 L  UC..0727
 L  UC..0728
 L  UC..0729
 L  UC..0730
 L  UC..0731
 L  UC..0732
 L  UC..0733
 L  UC..0734
 L  UC..0735
 L  UC..0736
 L  UC..0737
 L  UC..0738
 L  UC..0739
 L  UC..0740
 L  UC..0741
 L  UC..0742
 L  UC..0743
 L  UC..0744
 L  UC..0745
 L  UC..0746
 L  UC..0747
 L  UC..0748
 L  UC..0749
 L  UC..0750
 L  UC..0751
 L  UC..0752
 L  UC..0753
 L  UC..0754
 L  UC..0755
 L  UC..0756
 L  UC..0757
 L  UC..0758
 L  UC..0759
 L  UC..0760
 L  UC..0761
 L  UC..0762
 L  UC..0763
 L  UC..0764
 L  UC..0765
 L  UC..0766
 L  UC..0767
 L  UC..0768
 L  UC..0769
 L  UC..0770
 L  UC..0771
 L  UC..0772
 L  UC..0773
 L  UC..0774
 L  UC..0775
 L  UC..0776
 L  UC..0777
 L  UC..0778
 L  UC..0779
 L  UC..0780
 L  UC..0781
 L  UC..0782
 L  UC..0783
 L  UC..0784
 L  UC..0785
 L  UC..0786
 L  UC..0787
 L  UC..0788
 L  UC..0789
 L  UC..0790
 L  UC..0791
 L  UC..0792
 L  UC..0793
 L  UC..0794
 L  UC..0795
 L  UC..0796
 L  UC..0797
 L  UC..0798
 L  UC..0799
 L  UC..0800
 L  UC..0801
 L  UC..0802
 L  UC..0803
 L  UC..0804
 L  UC..0805
 L  UC..0806
 L  UC..0807
 L  UC..0808
 L  UC..0809
 L  UC..0810
 L  UC..0811
 L  UC..0812
 L  UC..0813
 L  UC..0814
 L  UC..0815
 L  UC..0816
 L  UC..0817
 L  UC..0818
 L  UC..0819
 L  UC..0820
 L  UC..0821
 L  UC..0822
 L  UC..0823
 L  UC..0824
 L  UC..0825
 L  UC..0826
 L  UC..0827
 L  UC..0828
 L  UC..0829
 L  UC..0830
 L  UC..0831
 L  UC..0832
 L  UC..0833
 L  UC..0834
 L  UC..0835
 L  UC..0836
 L  UC..0837
 L  UC..0838
 L  UC..0839
 L  UC..0840
 L  UC..0841
 L  UC..0842
 L  UC..0843
 L  UC..0844
 L  UC..0845
 L  UC..0846
 L  UC..0847
 L  UC..0848
 L  UC..0849
 L  UC..0850
 L  UC..0851
 L  UC..0852
 L  UC..0853
 L  UC..0854
 L  UC..0855
 L  UC..0856
 L  UC..0857
 L  UC..0858
 L  UC..0859
 L  UC..0860
 L  UC..0861
 L  UC..0862
 L  UC..0863
 L  UC..0864
 L  UC..0865
 L  UC..0866
 L  UC..0867
 L  UC..0868
 L  UC..0869
 L  UC..0870
 L  UC..0871
 L  UC..0872
 L  UC..0873
 L  UC..0874
 L  UC..0875
 L  UC..0876
 L  UC..0877
 L  UC..0878
 L  UC..0879
 L  UC..0880
 L  UC..0881
 L  UC..0882
 L  UC..0883
 L  UC..0884
 L  UC..0885
 L  UC..0886
 L  UC..0887
 L  UC..0888
 L  UC..0889
 L  UC..0890
 L  UC..0891
 L  UC..0892
 L  UC..0893
 L  UC..0894
 L  UC..0895
 L  UC..0896
 L  UC..0897
 L  UC..0898
 L  UC..0899
 L  UC..0900
 L  UC..0901
 L  UC..0902
 L  UC..0903
 L  UC..0904
 L  UC..0905
 L  UC..0906
 L  UC..0907
 L  UC..0908
 L  UC..0909
 L  UC..0910
 L  UC..0911
 L  UC..0912
 L  UC..0913
 L  UC..0914
 L  UC..0915
 L  UC..0916
 L  UC..0917
 L  UC..0918
 L  UC..0919
 L  UC..0920
 L  UC..0921
 L  UC..0922
 L  UC..0923
 L  UC..0924
 L  UC..0925
 L  UC..0926
 L  UC..0927
 L  UC..0928
 L  UC..0929
 L  UC..0930
 L  UC..0931
 L  UC..0932
 L  UC..0933
 L  UC..0934
 L  UC..0935
 L  UC..0936
 L  UC..0937
 L  UC..0938
 L  UC..0939
 L  UC..0940
 L  UC..0941
 L  UC..0942
 L  UC..0943
 L  UC..0944
 L  UC..0945
 L  UC..0946
 L  UC..0947
 L  UC..0948
 L  UC..0949
 L  UC..0950
 L  UC..0951
 L  UC..0952
 L  UC..0953
 L  UC..0954
 L  UC..0955
 L  UC..0956
 L  UC..0957
 L  UC..0958
 L  UC..0959
 L  UC..0960
 L  UC..0961
 L  UC..0962
 L  UC..0963
 L  UC..0964
 L  UC..0965
 L  UC..0966
 L  UC..0967
 L  UC..0968
 L  UC..0969
 L  UC..0970
 L  UC..0971
 L  UC..0972
 L  UC..0973
 L  UC..0974
 L  UC..0975
 L  UC..0976
 L  UC..0977
 L  UC..0978
 L  UC..0979
 L  UC..0980
 L  UC..0981
 L  UC..0982
 L  UC..0983
 L  UC..0984
 L  UC..0985
 L  UC..0986
 L  UC..0987
 L  UC..0988
 L  UC..0989
 L  UC..0990
 L  UC..0991
 L  UC..0992
 L  UC..0993
 L  UC..0994
 L  UC..0995
 L  UC..0996
 L  UC..0997
 L  UC..0998
 L  UC..0999
 L  UC..1000
 L  UC..1001
 L  UC..1002
 L  UC..1003
 L  UC..1004
 L  UC..1005
 L  UC..1006
 L  UC..1007
 L  UC..1008
 L  UC..1009
 L  UC..1010
 L  UC..1011
 L  UC..1012
 L  UC..1013
 L  UC..1014
 L  UC..1015
 L  UC..1016
 L  UC..1017
 L  UC..1018
 L  UC..1019
 L  UC..1020
 L  UC..1021
 L  UC..1022
 L  UC..1023
 L  UC..1024
 L  UC..1025
 L  UC..1026
 L  UC..1027
 L  UC..1028
 L  UC..1029
 L  UC..1030
 L  UC..1031
 L  UC..1032
 L  UC..1033
 L  UC..1034
 L  UC..1035
 L  UC..1036
 L  UC..1037
 L  UC..1038
 L  UC..1039
 L  UC..1040
 L  UC..1041
 L  UC..1042
 L  UC..1043
 L  UC..1044
 L  UC..1045
 L  UC..1046
 L  UC..1047
 L  UC..1048
 L  UC..1049
 L  UC..1050
 L  UC..1051
 L  UC..1052
 L  UC..1053
 L  UC..1054
 L  UC..1055
 L  UC..1056
 L  UC..1057
 L  UC..1058
 L  UC..1059
 L  UC..1060
 L  UC..1061
 L  UC..1062
 L  UC..1063
 L  UC..1064
 L  UC..1065
 L  UC..1066
 L  UC..1067
 L  UC..1068
 L  UC..1069
 L  UC..1070
 L  UC..1071
 L  UC..1072
 L  UC..1073
 L  UC..1074
 L  UC..1075
 L  UC..1076
 L  UC..1077
 L  UC..1078
 L  UC..1079
 L  UC..1080
 L  UC..1081
 L  UC..1082
 L  UC..1083
 L  UC..1084
 L  UC..1085
 L  UC..1086
 L  UC..1087
 L  UC..1088
 L  UC..1089
 L  UC..1090
 L  UC..1091
 L  UC..1092
 L  UC..1093
 L  UC..1094
 L  UC..1095
 L  UC..1096
 L  UC..1097
 L  UC..1098
 L  UC..1099
 L  UC..1100
 L  UC..1101
 L  UC..1102
 L  UC..1103
 L  UC..1104
 L  UC..1105
 L  UC..1106
 L  UC..1107
 L  UC..1108
 L  UC..1109
 L  UC..1110
 L  UC..1111
 L  UC..1112
 L  UC..1113
 L  UC..1114
 L  UC..1115
 L  UC..1116
 L  UC..1117
 L  UC..1118
 L  UC..1119
 L  UC..1120
 L  UC..1121
 L  UC..1122
 L  UC..1123
 L  UC..1124
 L  UC..1125
 L  UC..1126
 L  UC..1127
 L  UC..1128
 L  UC..1129
 L  UC..1130
 L  UC..1131
 L  UC..1132
 L  UC..1133
 L  UC..1134
 L  UC..1135
 L  UC..1136
 L  UC..1137
 L  UC..1138
 L  UC..1139
 L  UC..1140
 L  UC..1141
 L  UC..1142
 L  UC..1143
 L  UC..1144
 L  UC..1145
 L  UC..1146
 L  UC..1147
 L  UC..1148
 L  UC..1149
 L  UC..1150
 L  UC..1151
 L  UC..1152
 L  UC..1153
 L  UC..1154
 L  UC..1155
 L  UC..1156
 L  UC..1157
 L  UC..1158
 L  UC..1159
 L  UC..1160
 L  UC..1161
 L  UC..1162
 L  UC..1163
 L  UC..1164
 L  UC..1165
 L  UC..1166
 L  UC..1167
 L  UC..1168
 L  UC..1169
 L  UC..1170
 L  UC..1171
 L  UC..1172
 L  UC..1173
 L  UC..1174
 L  UC..1175
 L  UC..1176
 L  UC..1177
 L  UC..1178
 L  UC..1179
 L  UC..1180
 L  UC..1181
 L  UC..1182
 L  UC..1183
 L  UC..1184
 L  UC..1185
 L  UC..1186
 L  UC..1187
 L  UC..1188
 L  UC..1189
 L  UC..1190
 L  UC..1191
 L  UC..1192
 L  UC..1193
 L  UC..1194
 L  UC..1195
 L  UC..1196
 L  UC..1197
 L  UC..1198
 L  UC..1199
 L  UC..1200
 L  UC..1201
 L  UC..1202
 L  UC..1203
 L  UC..1204
 L  UC..1205
 L  UC..1206
 L  UC..1207
 L  UC..1208
 L  UC..1209
 L  UC..1210
 L  UC..1211
 L  UC..1212
 L  UC..1213
 L  UC..1214
 L  UC..1215
 L  UC..1216
 L  UC..1217
 L  UC..1218
 L  UC..1219
 L  UC..1220
 L  UC..1221
 L  UC..1222
 L  UC..1223
 L  UC..1224
 L  UC..1225
 L  UC..1226
 L  UC..1227
 L  UC..1228
 L  UC..1229
 L  UC..1230
 L  UC..1231
 L  UC..1232
 L  UC..1233
 L  UC..1234
 L  UC..1235
 L  UC..1236
 L  UC..1237
 L  UC..1238
 L  UC..1239
 L  UC..1240
 L  UC..1241
 L  UC..1242
 L  UC..1243
 L  UC..1244
 L  UC..1245
 L  UC..1246
 L  UC..1247
 L  UC..1248
 L  UC..1249
 L  UC..1250
 L  UC..1251
 L  UC..1252
 L  UC..1253
 L  UC..1254
 L  UC..1255
 L  UC..1256
 L  UC..1257
 L  UC..1258
 L  UC..1259
 L  UC..1260
 L  UC..1261
 L  UC..1262
 L  UC..1263
 L  UC..1264
 L  UC..1265
 L  UC..1266
 L  UC..1267
 L  UC..1268
 L  UC..1269
 L  UC..1270
 L  UC..1271
 L  UC..1272
 L  UC..1273
 L  UC..1274
 L  UC..1275
 L  UC..1276
 L  UC..1277
 L  UC..1278
 L  UC..1279
 L  UC..1280
 L  UC..1281
 L  UC..1282
 L  UC..1283
 L  UC..1284
 L  UC..1285
 L  UC..1286
 L  UC..1287
 L  UC..1288
 L  UC..1289
 L  UC..1290
 L  UC..1291
 L  UC..1292
 L  UC..1293
 L  UC..1294
 L  UC..1295
 L  UC..1296
 L  UC..1297
 L  UC..1298
 L  UC..1299
 L  UC..1300
 L  UC..1301
 L  UC..1302
 L  UC..1303
 L  UC..1304
 L  UC..1305
 L  UC..1306
 L  UC..1307
 L  UC..1308
 L  UC..1309
 L  UC..1310
 L  UC..1311
 L  UC..1312
 L  UC..1313
 L  UC..1314
 L  UC..1315
 L  UC..1316
 L  UC..1317
 L  UC..1318
 L  UC..1319
 L  UC..1320
 L  UC..1321
 L  UC..1322
 L  UC..1323
 L  UC..1324
 L  UC..1325
 L  UC..1326
 L  UC..1327
 L  UC..1328
 L  UC..1329
 L  UC..1330
 L  UC..1331
 L  UC..1332
 L  UC..1333
 L  UC..1334
 L  UC..1335
 L  UC..1336
 L  UC..1337
 L  UC..1338
 L  UC..1339
 L  UC..1340
 L  UC..1341
 L  UC..1342
 L  UC..1343
 L  UC..1344
 L  UC..1345
 L  UC..1346
 L  UC..1347
 L  UC..1348
 L  UC..1349
 L  UC..1350
 L  UC..1351
 L  UC..1352
 L  UC..1353
 L  UC..1354
 L  UC..1355
 L  UC..1356
 L  UC..1357
 L  UC..1358
 L  UC..1359
 L  UC..1360
 L  UC..1361
 L  UC..1362
 L  UC..1363
 L  UC..1364
 L  UC..1365
 L  UC..1366
 L  UC..1367
 L  UC..1368
 L  UC..1369
 L  UC..1370
 L  UC..1371
 L  UC..1372
 L  UC..1373
 L  UC..1374
 L  UC..1375
 L  UC..1376
 L  UC..1377
 L  UC..1378
 L  UC..1379
 L  UC..1380
 L  UC..1381
 L  UC..1382
 L  UC..1383
 L  UC..1384
 L  UC..1385
 L  UC..1386
 L  UC..1387
 L  UC..1388
 L  UC..1389
 L  UC..1390
 L  UC..1391
 L  UC..1392
 L  UC..1393
 L  UC..1394
 L  UC..1395
 L  UC..1396
 L  UC..1397
 L  UC..1398
 L  UC..1399
 L  UC..1400
 L  UC..1401
 L  UC..1402
 L  UC..1403
 L  UC..1404
 L  UC..1405
 L  UC..1406
 L  UC..1407
 L  UC..1408
 L  UC..1409
 L  UC..1410
 L  UC..1411
 L  UC..1412
 L  UC..1413
 L  UC..1414
 L  UC..1415
 L  UC..1416
 L  UC..1417
 L  UC..1418
 L  UC..1419
 L  UC..1420
 L  UC..1421
 L  UC..1422
 L  UC..1423
 L  UC..1424
 L  UC..1425
 L  UC..1426
 L  UC..1427
 L  UC..1428
 L  UC..1429
 L  UC..1430
 L  UC..1431
 L  UC..1432
 L  UC..1433
 L  UC..1434
 L  UC..1435
 L  UC..1436
 L  UC..1437
 L  UC..1438
 L  UC..1439
 L  UC..1440
 L  UC..1441
 L  UC..1442
 L  UC..1443
 L  UC..1444
 L  UC..1445
 L  UC..1446
 L  UC..1447
 L  UC..1448
 L  UC..1449
 L  UC..1450
 L  UC..1451
 L  UC..1452
 L  UC..1453
 L  UC..1454
 L  UC..1455
 L  UC..1456
 L  UC..1457
 L  UC..1458
 L  UC..1459
 L  UC..1460
 L  UC..1461
 L  UC..1462
 L  UC..1463
 L  UC..1464
 L  UC..1465
 L  UC..1466
 L  UC..1467
 L  UC..1468
 L  UC..1469
 L  UC..1470
 L  UC..1471
 L  UC..1472
 L  UC..1473
 L  UC..1474
 L  UC..1475
 L  UC..1476
 L  UC..1477
 L  UC..1478
 L  UC..1479
 L  UC..1480
 L  UC..1481
 L  UC..1482
 L  UC..1483
 L  UC..1484
 L  UC..1485
 L  UC..1486
 L  UC..1487
 L  UC..1488
 L  UC..1489
 L  UC..1490
 L  UC..1491
 L  UC..1492
 L  UC..1493
 L  UC..1494
 L  UC..1495
 L  UC..1496
 L  UC..1497
 L  UC..1498
 L  UC..1499
 L  UC..1500
 L  UC..1501
 L  UC..1502
 L  UC..1503
 L  UC..1504
 L  UC..1505
 L  UC..1506
 L  UC..1507
 L  UC..1508
 L  UC..1509
 L  UC..1510
 L  UC..1511
 L  UC..1512
 L  UC..1513
 L  UC..1514
 L  UC..1515
 L  UC..1516
 L  UC..1517
 L  UC..1518
 L  UC..1519
 L  UC..1520
 L  UC..1521
 L  UC..1522
 L  UC..1523
 L  UC..1524
 L  UC..1525
 L  UC..1526
 L  UC..1527
 L  UC..1528
 L  UC..1529
 L  UC..1530
 L  UC..1531
 L  UC..1532
 L  UC..1533
 L  UC..1534
 L  UC..1535
 L  UC..1536
 L  UC..1537
 L  UC..1538
 L  UC..1539
 L  UC..1540
 L  UC..1541
 L  UC..1542
 L  UC..1543
 L  UC..1544
 L  UC..1545
 L  UC..1546
 L  UC..1547
 L  UC..1548
 L  UC..1549
 L  UC..1550
 L  UC..1551
 L  UC..1552
 L  UC..1553
 L  UC..1554
 L  UC..1555
 L  UC..1556
 L  UC..1557
 L  UC..1558
 L  UC..1559
 L  UC..1560
 L  UC..1561
 L  UC..1562
 L  UC..1563
 L  UC..1564
 L  UC..1565
 L  UC..1566
 L  UC..1567
 L  UC..1568
 L  UC..1569
 L  UC..1570
 L  UC..1571
 L  UC..1572
 L  UC..1573
 L  UC..1574
 L  UC..1575
 L  UC..1576
 L  UC..1577
 L  UC..1578
 L  UC..1579
 L  UC..1580
 L  UC..1581
 L  UC..1582
 L  UC..1583
 L  UC..1584
 L  UC..1585
 L  UC..1586
 L  UC..1587
 L  UC..1588
 L  UC..1589
 L  UC..1590
 L  UC..1591
 L  UC..1592
 L  UC..1593
 L  UC..1594
 L  UC..1595
 L  UC..1596
 L  UC..1597
 L  UC..1598
 L  UC..1599
 L  UC..1600
 L  UC..1601
 L  UC..1602
 L  UC..1603
 L  UC..1604
 L  UC..1605
 L  UC..1606
 L  UC..1607
 L  UC..1608
 L  UC..1609
 L  UC..1610
 L  UC..1611
 L  UC..1612
 L  UC..1613
 L  UC..1614
 L  UC..1615
 L  UC..1616
 L  UC..1617
 L  UC..1618
 L  UC..1619
 L  UC..1620
 L  UC..1621
 L  UC..1622
 L  UC..1623
 L  UC..1624
 L  UC..1625
 L  UC..1626
 L  UC..1627
 L  UC..1628
 L  UC..1629
 L  UC..1630
 L  UC..1631
 L  UC..1632
 L  UC..1633
 L  UC..1634
 L  UC..1635
 L  UC..1636
 L  UC..1637
 L  UC..1638
 L  UC..1639
 L  UC..1640
 L  UC..1641
 L  UC..1642
 L  UC..1643
 L  UC..1644
 L  UC..1645
 L  UC..1646
 L  UC..1647
 L  UC..1648
 L  UC..1649
 L  UC..1650
 L  UC..1651
 L  UC..1652
 L  UC..1653
 L  UC..1654
 L  UC..1655
 L  UC..1656
 L  UC..1657
 L  UC..1658
 L  UC..1659
 L  UC..1660
 L  UC..1661
 L  UC..1662
 L  UC..1663
 L  UC..1664
 L  UC..1665
 L  UC..1666
 L  UC..1667
 L  UC..1668
 L  UC..1669
 L  UC..1670
 L  UC..1671
 L  UC..1672
 L  UC..1673
 L  UC..1674
 L  UC..1675
 L  UC..1676
 L  UC..1677
 L  UC..1678
 L  UC..1679
 L  UC..1680
 L  UC..1681
 L  UC..1682
 L  UC..1683
 L  UC..1684
 L  UC..1685
 L  UC..1686
 L  UC..1687
 L  UC..1688
 L  UC..1689
 L  UC..1690
 L  UC..1691
 L  UC..1692
 L  UC..1693
 L  UC..1694
 L  UC..1695
 L  UC..1696
 L  UC..1697
 L  UC..1698
 L  UC..1699
 L  UC..1700
 L  UC..1701
 L  UC..1702
 L  UC..1703
 L  UC..1704
 L  UC..1705
 L  UC..1706
 L  UC..1707
 L  UC..1708
 L  UC..1709
 L  UC..1710
 L  UC..1711
 L  UC..1712
 L  UC..1713
 L  UC..1714
 L  UC..1715
 L  UC..1716
 L  UC..1717
 L  UC..1718
 L  UC..1719
 L  UC..1720
 L  UC..1721
 L  UC..1722
 L  UC..1723
 L  UC..1724
 L  UC..1725
 L  UC..1726
 L  UC..1727
 L  UC..1728
 L  UC..1729
 L  UC..1730
 L  UC..1731
 L  UC..1732
 L  UC..1733
 L  UC..1734
 L  UC..1735
 L  UC..1736
 L  UC..1737
 L  UC..1738
 L  UC..1739
 L  UC..1740
 L  UC..1741
 L  UC..1742
 L  UC..1743
 L  UC..1744
 L  UC..1745
 L  UC..1746
 L  UC..1747
 L  UC..1748
 L  UC..1749
 L  UC..1750
 L  UC..1751
 L  UC..1752
 L  UC..1753
 L  UC..1754
 L  UC..1755
 L  UC..1756
 L  UC..1757
 L  UC..1758
 L  UC..1759
 L  UC..1760
 L  UC..1761
 L  UC..1762
 L  UC..1763
 L  UC..1764
 L  UC..1765
 L  UC..1766
 L  UC..1767
 L  UC..1768
 L  UC..1769
 L  UC..1770
 L  UC..1771
 L  UC..1772
 L  UC..1773
 L  UC..1774
 L  UC..1775
 L  UC..1776
 L  UC..1777
 L  UC..1778
 L  UC..1779
 L  UC..1780
 L  UC..1781
 L  UC..1782
 L  UC..1783
 L  UC..1784
 L  UC..1785
 L  UC..1786
 L  UC..1787
 L  UC..1788
 L  UC..1789
 L  UC..1790
 L  UC..1791
 L  UC..1792
 L  UC..1793
 L  UC..1794
 L  UC..1795
 L  UC..1796
 L  UC..1797
 L  UC..1798
 L  UC..1799
 L  UC..1800
 L  UC..1801
 L  UC..1802
 L  UC..1803
 L  UC..1804
 L  UC..1805
 L  UC..1806
 L  UC..1807
 L  UC..1808
 L  UC..1809
 L  UC..1810
 L  UC..1811
 L  UC..1812
 L  UC..1813
 L  UC..1814
 L  UC..1815
 L  UC..1816
 L  UC..1817
 L  UC..1818
 L  UC..1819
 L  UC..1820
 L  UC..1821
 L  UC..1822
 L  UC..1823
 L  UC..1824
 L  UC..1825
 L  UC..1826
 L  UC..1827
 L  UC..1828
 L  UC..1829
 L  UC..1830
 L  UC..1831
 L  UC..1832
 L  UC..1833
 L  UC..1834
 L  UC..1835
 L  UC..1836
 L  UC..1837
 L  UC..1838
 L  UC..1839
 L  UC..1840
 L  UC..1841
 L  UC..1842
 L  UC..1843
 L  UC..1844
 L  UC..1845
 L  UC..1846
 L  UC..1847
 L  UC..1848
 L  UC..1849
 L  UC..1850
 L  UC..1851
 L  UC..1852
 L  UC..1853
 L  UC..1854
 L  UC..1855
 L  UC..1856
 L  UC..1857
 L  UC..1858
 L  UC..1859
 L  UC..1860
 L  UC..1861
 L  UC..1862
 L  UC..1863
 L  UC..1864
 L  UC..1865
 L  UC..1866
 L  UC..1867
 L  UC..1868
 L  UC..1869
 L  UC..1870
 L  UC..1871
 L  UC..1872
 L  UC..1873
 L  UC..1874
 L  UC..1875
 L  UC..1876
 L  UC..1877
 L  UC..1878
 L  UC..1879
 L  UC..1880
 L  UC..1881
 L  UC..1882
 L  UC..1883
 L  UC..1884
 L  UC..1885
 L  UC..1886
 L  UC..1887
 L  UC..1888
 L  UC..1889
 L  UC..1890
 L  UC..1891
 L  UC..1892
 L  UC..1893
 L  UC..1894
 L  UC..1895
 L  UC..1896
 L  UC..1897
 L  UC..1898
 L  UC..1899
 L  UC..1900
 L  UC..1901
 L  UC..1902
 L  UC..1903
 L  UC..1904
 L  UC..1905
 L  UC..1906
 L  UC..1907
 L  UC..1908
 L  UC..1909
 L  UC..1910
 L  UC..1911
 L  UC..1912
 L  UC..1913
 L  UC..1914
 L  UC..1915
 L  UC..1916
 L  UC..1917
 L  UC..1918
 L  UC..1919
 L  UC..1920
 L  UC..1921
 L  UC..1922
 L  UC..1923
 L  UC..1924
 L  UC..1925
 L  UC..1926
 L  UC..1927
 L  UC..1928
 L  UC..1929
 L  UC..1930
 L  UC..1931
 L  UC..1932
 L  UC..1933
 L  UC..1934
 L  UC..1935
 L  UC..1936
 L  UC..1937
 L  UC..1938
 L  UC..1939
 L  UC..1940
 L  UC..1941
 L  UC..1942
 L  UC..1943
 L  UC..1944
 L  UC..1945
 L  UC..1946
 L  UC..1947
 L  UC..1948
 L  UC..1949
 L  UC..1950
 L  UC..1951
 L  UC..1952
 L  UC..1953
 L  UC..1954
 L  UC..1955
 L  UC..1956
 L  UC..1957
 L  UC..1958
 L  UC..1959
 L  UC..1960
 L  UC..1961
 L  UC..1962
 L  UC..1963
 L  UC..1964
 L  UC..1965
 L  UC..1966
 L  UC..1967
 L  UC..1968
 L  UC..1969
 L  UC..1970
 L  UC..1971
 L  UC..1972
 L  UC..1973
 L  UC..1974
 L  UC..1975
 L  UC..1976
 L  UC..1977
 L  UC..1978
 L  UC..1979
 L  UC..1980
 L  UC..1981
 L  UC..1982
 L  UC..1983
 L  UC..1984
 L  UC..1985
 L  UC..1986
 L  UC..1987
 L  UC..1988
 L  UC..1989
 L  UC..1990
 L  UC..1991
 L  UC..1992
 L  UC..1993
 L  UC..1994
 L  UC..1995
 L  UC..1996
 L  UC..1997
 L  UC..1998
 L  UC..1999
 L  UC..2000
 L  UC..2001
 L  UC..2002
 L  UC..2003
 L  UC..2004
 L  UC..2005
 L  UC..2006
 L  UC..2007
 L  UC..2008
 L  UC..2009
 L  UC..2010
 L  UC..2011
 L  UC..2012
 L  UC..2013
 L  UC..2014
 L  UC..2015
 L  UC..2016
 L  UC..2017
 L  UC..2018
 L  UC..2019
 L  UC..2020
 L  UC..2021
 L  UC..2022
 L  UC..2023
 L  UC..2024
 L  UC..2025
 L  UC..2026
 L  UC..2027
 L  UC..2028
 L  UC..2029
 L  UC..2030
 L  UC..2031
 L  UC..2032
 L  UC..2033
 L  UC..2034
 L  UC..2035
 L  UC..2036
 L  UC..2037
 L  UC..2038
 L  UC..2039
 L  UC..2040
 L  UC..2041
 L  UC..2042
 L  UC..2043
 L  UC..2044
 L  UC..2045
 L  UC..2046
 L  UC..2047
 L  UC..2048
 L  UC..2049
 L  UC..2050
 L  UC..2051
 L  UC..2052
 L  UC..2053
 L  UC..2054
 L  UC..2055
 L  UC..2056
 L  UC..2057
 L  UC..2058
 L  UC..2059
 L  UC..2060
 L  UC..2061
 L  UC..2062
 L  UC..2063
 L  UC..2064
 L  UC..2065
 L  UC..2066
 L  UC..2067
 L  UC..2068
 L  UC..2069
 L  UC..2070
 L  UC..2071
 L  UC..2072
 L  UC..2073
 L  UC..2074
 L  UC..2075
 L  UC..2076
 L  UC..2077
 L  UC..2078
 L  UC..2079
 L  UC..2080
 L  UC..2081
 L  UC..2082
 L  UC..2083
 L  UC..2084
 L  UC..2085
 L  UC..2086
 L  UC..2087
 L  UC..2088
 L  UC..2089
 L  UC..2090
 L  UC..2091
 L  UC..2092
 L  UC..2093
 L  UC..2094
 L  UC..2095
 L  UC..2096
 L  UC..2097
 L  UC..2098
 L  UC..2099
 L  UC..2100
 L  UC..2101
 L  UC..2102
 L  UC..2103
 L  UC..2104
 L  UC..2105
 L  UC..2106
 L  UC..2107
 L  UC..2108
 L  UC..2109
 L  UC..2110
 L  UC..2111
 L  UC..2112
 L  UC..2113
 L  UC..2114
 L  UC..2115
 L  UC..2116
 L  UC..2117
 L  UC..2118
 L  UC..2119
 L  UC..2120
 L  UC..2121
 L  UC..2122
 L  UC..2123
 L  UC..2124
 L  UC..2125
 L  UC..2126
 L  UC..2127
 L  UC..2128
 L  UC..2129
 L  UC..2130
 L  UC..2131
 L  UC..2132
 L  UC..2133
 L  UC..2134
 L  UC..2135
 L  UC..2136
 L  UC..2137
 L  UC..2138
 L  UC..2139
 L  UC..2140
 L  UC..2141
 L  UC..2142
 L  UC..2143
 L  UC..2144
 L  UC..2145
 L  UC..2146
 L  UC..2147
 L  UC..2148
 L  UC..2149
 L  UC..2150
 L  UC..2151
 L  UC..2152
 L  UC..2153
 L  UC..2154
 L  UC..2155
 L  UC..2156
 L  UC..2157
 L  UC..2158
 L  UC..2159
 L  UC..2160
 L  UC..2161
 L  UC..2162
 L  UC..2163
 L  UC..2164
 L  UC..2165
 L  UC..2166
 L  UC..2167
 L  UC..2168
 L  UC..2169
 L  UC..2170
 L  UC..2171
 L  UC..2172
 L  UC..2173
 L  UC..2174
 L  UC..2175
 L  UC..2176
 L  UC..2177
 L  UC..2178
 L  UC..2179
 L  UC..2180
 L  UC..2181
 L  UC..2182
 L  UC..2183
 L  UC..2184
 L  UC..2185
 L  UC..2186
 L  UC..2187
 L  UC..2188
 L  UC..2189
 L  UC..2190
 L  UC..2191
 L  UC..2192
 L  UC..2193
 L  UC..2194
 L  UC..2195
 L  UC..2196
 L  UC..2197
 L  UC..2198
 L  UC..2199
 L  UC..2200
 L  UC..2201
 L  UC..2202
 L  UC..2203
 L  UC..2204
 L  UC..2205
 L  UC..2206
 L  UC..2207
 L  UC..2208
 L  UC..2209
 L  UC..2210
 L  UC..2211
 L  UC..2212
 L  UC..2213
 L  UC..2214
 L  UC..2215
 L  UC..2216
 L  UC..2217
 L  UC..2218
 L  UC..2219
 L  UC..2220
 L  UC..2221
 L  UC..2222
 L  UC..2223
 L  UC..2224
 L  UC..2225
 L  UC..2226
 L  UC..2227
 L  UC..2228
 L  UC..2229
 L  UC..2230
 L  UC..2231
 L  UC..2232
 L  UC..2233
 L  UC..2234
 L  UC..2235
 L  UC..2236
 L  UC..2237
 L  UC..2238
 L  UC..2239
 L  UC..2240
 L  UC..2241
 L  UC..2242
 L  UC..2243
 L  UC..2244
 L  UC..2245
 L  UC..2246
 L  UC..2247
 L  UC..2248
 L  UC..2249
 L  UC..2250
 L  UC..2251
 L  UC..2252
 L  UC..2253
 L  UC..2254
 L  UC..2255
 L  UC..2256
 L  UC..2257
 L  UC..2258
 L  UC..2259
 L  UC..2260
 L  UC..2261
 L  UC..2262
 L  UC..2263
 L  UC..2264
 L  UC..2265
 L  UC..2266
 L  UC..2267
 L  UC..2268
 L  UC..2269
 L  UC..2270
 L  UC..2271
 L  UC..2272
 L  UC..2273
 L  UC..2274
 L  UC..2275
 L  UC..2276
 L  UC..2277
 L  UC..2278
 L  UC..2279
 L  UC..2280
 L  UC..2281
 L  UC..2282
 L  UC..2283
 L  UC..2284
 L  UC..2285
 L  UC..2286
 L  UC..2287
 L  UC..2288
 L  UC..2289
 L  UC..2290
 L  UC..2291
 L  UC..2292
 L  UC..2293
 L  UC..2294
 L  UC..2295
 L  UC..2296
 L  UC..2297
 L  UC..2298
 L  UC..2299
 L  UC..2300
 L  UC..2301
 L  UC..2302
 L  UC..2303
 L  UC..2304
 L  UC..2305
 L  UC..2306
 L  UC..2307
 L  UC..2308
 L  UC..2309
 L  UC..2310
 L  UC..2311
 L  UC..2312
 L  UC..2313
 L  UC..2314
 L  UC..2315
 L  UC..2316
 L  UC..2317
 L  UC..2318
 L  UC..2319
 L  UC..2320
 L  UC..2321
 L  UC..2322
 L  UC..2323
 L  UC..2324
 L  UC..2325
 L  UC..2326
 L  UC..2327
 L  UC..2328
 L  UC..2329
 L  UC..2330
 L  UC..2331
 L  UC..2332
 L  UC..2333
 L  UC..2334
 L  UC..2335
 L  UC..2336
 L  UC..2337
 L  UC..2338
 L  UC..2339
 L  UC..2340
 L  UC..2341
 L  UC..2342
 L  UC..2343
 L  UC..2344
 L  UC..2345
 L  UC..2346
 L  UC..2347
 L  UC..2348
 L  UC..2349
 L  UC..2350
 L  UC..2351
 L  UC..2352
 L  UC..2353
 L  UC..2354
 L  UC..2355
 L  UC..2356
 L  UC..2357
 L  UC..2358
 L  UC..2359
 L  UC..2360
 L  UC..2361
 L  UC..2362
 L  UC..2363
 L  UC..2364
 L  UC..2365
 L  UC..2366
 L  UC..2367
 L  UC..2368
 L  UC..2369
 L  UC..2370
 L  UC..2371
 L  UC..2372
 L  UC..2373
 L  UC..2374
 L  UC..2375
 L  UC..2376
 L  UC..2377
 L  UC..2378
 L  UC..2379
 L  UC..2380
 L  UC..2381
 L  UC..2382
 L  UC..2383
 L  UC..2384
 L  UC..2385
 L  UC..2386
 L  UC..2387
 L  UC..2388
 L  UC..2389
 L  UC..2390
 L  UC..2391
 L  UC..2392
 L  UC..2393
 L  UC..2394
 L  UC..2395
 L  UC..2396
 L  UC..2397
 L  UC..2398
 L  UC..2399
 L  UC..2400
 L  UC..2401
 L  UC..2402
 L  UC..2403
 L  UC..2404
 L  UC..2405
 L  UC..2406
 L  UC..2407
 L  UC..2408
 L  UC..2409
 L  UC..2410
 L  UC..2411
 L  UC..2412
 L  UC..2413
 L  UC..2414
 L  UC..2415
 L  UC..2416
 L  UC..2417
 L  UC..2418
 L  UC..2419
 L  UC..2420
 L  UC..2421
 L  UC..2422
 L  UC..2423
 L  UC..2424
 L  UC..2425
 L  UC..2426
 L  UC..2427
 L  UC..2428
 L  UC..2429
 L  UC..2430
 L  UC..2431
 L  UC..2432
 L  UC..2433
 L  UC..2434
 L  UC..2435
 L  UC..2436
 L  UC..2437
 L  UC..2438
 L  UC..2439
 L  UC..2440
 L  UC..2441
 L  UC..2442
 L  UC..2443
 L  UC..2444
 L  UC..2445
 L  UC..2446
 L  UC..2447
 L  UC..2448
 L  UC..2449
 L  UC..2450
 L  UC..2451
 L  UC..2452
 L  UC..2453
 L  UC..2454
 L  UC..2455
 L  UC..2456
 L  UC..2457
 L  UC..2458
 L  UC..2459
 L  UC..2460
 L  UC..2461
 L  UC..2462
 L  UC..2463
 L  UC..2464
 L  UC..2465
 L  UC..2466
 L  UC..2467
 L  UC..2468
 L  UC..2469
 L  UC..2470
 L  UC..2471
 L  UC..2472
 L  UC..2473
 L  UC..2474
 L  UC..2475
 L  UC..2476
 L  UC..2477
 L  UC..2478
 L  UC..2479
 L  UC..2480
 L  UC..2481
 L  UC..2482
 L  UC..2483
 L  UC..2484
 L  UC..2485
 L  UC..2486
 L  UC..2487
 L  UC..2488
 L  UC..2489
 L  UC..2490
 L  UC..2491
 L  UC..2492
 L  UC..2493
 L  UC..2494
 L  UC..2495
 L  UC..2496
 L  UC..2497
 L  UC..2498
 L  UC..2499
 L  UC..2500
 L  UC..2501
 L  UC..2502
 L  UC..2503
 L  UC..2504
 L  UC..2505
 L  UC..2506
 L  UC..2507
 L  UC..2508
 L  UC..2509
 L  UC..2510
 L  UC..2511
 L  UC..2512
 L  UC..2513
 L  UC..2514
 L  UC..2515
 L  UC..2516
 L  UC..2517
 L  UC..2518
 L  UC..2519
 L  UC..2520
 L  UC..2521
 L  UC..2522
 L  UC..2523
 L  UC..2524
 L  UC..2525
 L  UC..2526
 L  UC..2527
 L  UC..2528
 L  UC..2529
 L  UC..2530
 L  UC..2531
 L  UC..2532
 L  UC..2533
 L  UC..2534
 L  UC..2535
 L  UC..2536
 L  UC..2537
 L  UC..2538
 L  UC..2539
 L  UC..2540
 L  UC..2541
 L  UC..2542
 L  UC..2543
 L  UC..2544
 L  UC..2545
 L  UC..2546
 L  UC..2547
 L  UC..2548
 L  UC..2549
 L  UC..2550
 L  UC..2551
 L  UC..2552
 L  UC..2553
 L  UC..2554
 L  UC..2555
 L  UC..2556
 L  UC..2557
 L  UC..2558
 L  UC..2559
 L  UC..2560
 L  UC..2561
 L  UC..2562
 L  UC..2563
 L  UC..2564
 L  UC..2565
 L  UC..2566
 L  UC..2567
 L  UC..2568
 L  UC..2569
 L  UC..2570
 L  UC..2571
 L  UC..2572
 L  UC..2573
 L  UC..2574
 L  UC..2575
 L  UC..2576
 L  UC..2577
 L  UC..2578
 L  UC..2579
 L  UC..2580
 L  UC..2581
 L  UC..2582
 L  UC..2583
 L  UC..2584
 L  UC..2585
 L  UC..2586
 L  UC..2587
 L  UC..2588
 L  UC..2589
 L  UC..2590
 L  UC..2591
 L  UC..2592
 L  UC..2593
 L  UC..2594
 L  UC..2595
 L  UC..2596
 L  UC..2597
 L  UC..2598
 L  UC..2599
 L  UC..2600
 L  UC..2601
 L  UC..2602
 L  UC..2603
 L  UC..2604
 L  UC..2605
 L  UC..2606
 L  UC..2607
 L  UC..2608
 L  UC..2609
 L  UC..2610
 L  UC..2611
 L  UC..2612
 L  UC..2613
 L  UC..2614
 L  UC..2615
 L  UC..2616
 L  UC..2617
 L  UC..2618
 L  UC..2619
 L  UC..2620
 L  UC..2621
 L  UC..2622
 L  UC..2623
 L  UC..2624
 L  UC..2625
 L  UC..2626
 L  UC..2627
 L  UC..2628
 L  UC..2629
 L  UC..2630
 L  UC..2631
 L  UC..2632
 L  UC..2633
 L  UC..2634
 L  UC..2635
 L  UC..2636
 L  UC..2637
 L  UC..2638
 L  UC..2639
 L  UC..2640
 L  UC..2641
 L  UC..2642
 L  UC..2643
 L  UC..2644
 L  UC..2645
 L  UC..2646
 L  UC..2647
 L  UC..2648
 L  UC..2649
 L  UC..2650
 L  UC..2651
 L  UC..2652
 L  UC..2653
 L  UC..2654
 L  UC..2655
 L  UC..2656
 L  UC..2657
 L  UC..2658
 L  UC..2659
 L  UC..2660
 L  UC..2661
 L  UC..2662
 L  UC..2663
 L  UC..2664
 L  UC..2665
 L  UC..2666
 L  UC..2667
 L  UC..2668
 L  UC..2669
 L  UC..2670
 L  UC..2671
 L  UC..2672
 L  UC..2673
 L  UC..2674
 L  UC..2675
 L  UC..2676
 L  UC..2677
 L  UC..2678
 L  UC..2679
 L  UC..2680
 L  UC..2681
 L  UC..2682
 L  UC..2683
 L  UC..2684
 L  UC..2685
 L  UC..2686
 L  UC..2687
 L  UC..2688
 L  UC..2689
 L  UC..2690
 L  UC..2691
 L  UC..2692
 L  UC..2693
 L  UC..2694
 L  UC..2695
 L  UC..2696
 L  UC..2697
 L  UC..2698
 L  UC..2699
 L  UC..2700
 L  UC..2701
 L  UC..2702
 L  UC..2703
 L  UC..2704
 L  UC..2705
 L  UC..2706
 L  UC..2707
 L  UC..2708
 L  UC..2709
 L  UC..2710
 L  UC..2711
 L  UC..2712
 L  UC..2713
 L  UC..2714
 L  UC..2715
 L  UC..2716
 L  UC..2717
 L  UC..2718
 L  UC..2719
 L  UC..2720
 L  UC..2721
 L  UC..2722
 L  UC..2723
 L  UC..2724
 L  UC..2725
 L  UC..2726
 L  UC..2727
 L  UC..2728
 L  UC..2729
 L  UC..2730
 L  UC..2731
 L  UC..2732
 L  UC..2733
 L  UC..2734
 L  UC..2735
 L  UC..2736
 L  UC..2737
 L  UC..2738
 L  UC..2739
 L  UC..2740
 L  UC..2741
 L  UC..2742
 L  UC..2743
 L  UC..2744
 L  UC..2745
 L  UC..2746
 L  UC..2747
 L  UC..2748
 L  UC..2749
 L  UC..2750
 L  UC..2751
 L  UC..2752
 L  UC..2753
 L  UC..2754
 L  UC..2755
 L  UC..2756
 L  UC..2757
 L  UC..2758
 L  UC..2759
 L  UC..2760
 L  UC..2761
 L  UC..2762
 L  UC..2763
 L  UC..2764
 L  UC..2765
 L  UC..2766
 L  UC..2767
 L  UC..2768
 L  UC..2769
 L  UC..2770
 L  UC..2771
 L  UC..2772
 L  UC..2773
 L  UC..2774
 L  UC..2775
 L  UC..2776
 L  UC..2777
 L  UC..2778
 L  UC..2779
 L  UC..2780
 L  UC..2781
 L  UC..2782
 L  UC..2783
 L  UC..2784
 L  UC..2785
 L  UC..2786
 L  UC..2787
 L  UC..2788
 L  UC..2789
 L  UC..2790
 L  UC..2791
 L  UC..2792
 L  UC..2793
 L  UC..2794
 L  UC..2795
 L  UC..2796
 L  UC..2797
 L  UC..2798
 L  UC..2799
 L  UC..2800
 L  UC..2801
 L  UC..2802
 L  UC..2803
 L  UC..2804
 L  UC..2805
 L  UC..2806
 L  UC..2807
 L  UC..2808
 L  UC..2809
 L  UC..2810
 L  UC..2811
 L  UC..2812
 L  UC..2813
 L  UC..2814
 L  UC..2815
 L  UC..2816
 L  UC..2817
 L  UC..2818
 L  UC..2819
 L  UC..2820
 L  UC..2821
 L  UC..2822
 L  UC..2823
 L  UC..2824
 L  UC..2825
 L  UC..2826
 L  UC..2827
 L  UC..2828
 L  UC..2829
 L  UC..2830
 L  UC..2831
 L  UC..2832
 L  UC..2833
 L  UC..2834
 L  UC..2835
 L  UC..2836
 L  UC..2837
 L  UC..2838
 L  UC..2839
 L  UC..2840
 L  UC..2841
 L  UC..2842
 L  UC..2843
 L  UC..2844
 L  UC..2845
 L  UC..2846
 L  UC..2847
 L  UC..2848
 L  UC..2849
 L  UC..2850
 L  UC..2851
 L  UC..2852
 L  UC..2853
 L  UC..2854
 L  UC..2855
 L  UC..2856
 L  UC..2857
 L  UC..2858
 L  UC..2859
 L  UC..2860
 L  UC..2861
 L  UC..2862
 L  UC..2863
 L  UC..2864
 L  UC..2865
 L  UC..2866
 L  UC..2867
 L  UC..2868
 L  UC..2869
 L  UC..2870
 L  UC..2871
 L  UC..2872
 L  UC..2873
 L  UC..2874
 L  UC..2875
 L  UC..2876
 L  UC..2877
 L  UC..2878
 L  UC..2879
 L  UC..2880
 L  UC..2881
 L  UC..2882
 L  UC..2883
 L  UC..2884
 L  UC..2885
 L  UC..2886
 L  UC..2887
 L  UC..2888
 L  UC..2889
 L  UC..2890
 L  UC..2891
 L  UC..2892
 L  UC..2893
 L  UC..2894
 L  UC..2895
 L  UC..2896
 L  UC..2897
 L  UC..2898
 L  UC..2899
 L  UC..2900
 L  UC..2901
 L  UC..2902
 L  UC..2903
 L  UC..2904
 L  UC..2905
 L  UC..2906
 L  UC..2907
 L  UC..2908
 L  UC..2909
 L  UC..2910
 L  UC..2911
 L  UC..2912
 L  UC..2913
 L  UC..2914
 L  UC..2915
 L  UC..2916
 L  UC..2917
 L  UC..2918
 L  UC..2919
 L  UC..2920
 L  UC..2921
 L  UC..2922
 L  UC..2923
 L  UC..2924
 L  UC..2925
 L  UC..2926
 L  UC..2927
 L  UC..2928
 L  UC..2929
 L  UC..2930
 L  UC..2931
 L  UC..2932
 L  UC..2933
 L  UC..2934
 L  UC..2935
 L  UC..2936
 L  UC..2937
 L  UC..2938
 L  UC..2939
 L  UC..2940
 L  UC..2941
 L  UC..2942
 L  UC..2943
 L  UC..2944
 L  UC..2945
 L  UC..2946
 L  UC..2947
 L  UC..2948
 L  UC..2949
 L  UC..2950
 L  UC..2951
 L  UC..2952
 L  UC..2953
 L  UC..2954
 L  UC..2955
 L  UC..2956
 L  UC..2957
 L  UC..2958
 L  UC..2959
 L  UC..2960
 L  UC..2961
 L  UC..2962
 L  UC..2963
 L  UC..2964
 L  UC..2965
 L  UC..2966
 L  UC..2967
 L  UC..2968
 L  UC..2969
 L  UC..2970
 L  UC..2971
 L  UC..2972
 L  UC..2973
 L  UC..2974
 L  UC..2975
 L  UC..2976
 L  UC..2977
 L  UC..2978
 L  UC..2979
 L  UC..2980
 L  UC..2981
 L  UC..2982
 L  UC..2983
 L  UC..2984
 L  UC..2985
 L  UC..2986
 L  UC..2987
 L  UC..2988
COLUMNS
    x...0001  CNS..002     -1.000000   CNS..024      1.000000
    x...0001  UC..0001      1.000000
    x...0002  CNS..002     -1.000000   CNS..195      1.000000
    x...0002  UC..0002      1.000000
    x...0003  CNS..003     -1.000000   CNS..435      1.000000
    x...0003  UC..0003      1.000000
    x...0004  CNS..001     -1.000000   CNS..221      1.000000
    x...0004  UC..0004      1.000000
    x...0005  CNS..001     -1.000000   CNS..051      1.000000
    x...0005  UC..0005      1.000000
    x...0006  CNS..003     -1.000000   CNS..195      1.000000
    x...0006  UC..0006      1.000000
    x...0007  CNS..004     -1.000000   CNS..023      1.000000
    x...0007  UC..0007      1.000000
    x...0008  CNS..004     -1.000000   CNS..289      1.000000
    x...0008  UC..0008      1.000000
    x...0009  CNS..004     -1.000000   CNS..162      1.000000
    x...0009  UC..0009      1.000000
    x...0010  CNS..002     -1.000000   CNS..040      1.000000
    x...0010  UC..0010      1.000000
    x...0011  CNS..005     -1.000000   CNS..174      1.000000
    x...0011  UC..0011      1.000000
    x...0012  CNS..005     -1.000000   CNS..317      1.000000
    x...0012  UC..0012      1.000000
    x...0013  CNS..003     -1.000000   CNS..058      1.000000
    x...0013  UC..0013      1.000000
    x...0014  CNS..004     -1.000000   CNS..236      1.000000
    x...0014  UC..0014      1.000000
    x...0015  CNS..001     -1.000000   CNS..403      1.000000
    x...0015  UC..0015      1.000000
    x...0016  CNS..005     -1.000000   CNS..084      1.000000
    x...0016  UC..0016      1.000000
    x...0017  CNS..006     -1.000000   CNS..382      1.000000
    x...0017  UC..0017      1.000000
    x...0018  CNS..006     -1.000000   CNS..227      1.000000
    x...0018  UC..0018      1.000000
    x...0019  CNS..007     -1.000000   CNS..221      1.000000
    x...0019  UC..0019      1.000000
    x...0020  CNS..007     -1.000000   CNS..023      1.000000
    x...0020  UC..0020      1.000000
    x...0021  CNS..006     -1.000000   CNS..038      1.000000
    x...0021  UC..0021      1.000000
    x...0022  CNS..003     -1.000000   CNS..017      1.000000
    x...0022  UC..0022      1.000000
    x...0023  CNS..001     -1.000000   CNS..021      1.000000
    x...0023  UC..0023      1.000000
    x...0024  CNS..003     -1.000000   CNS..021      1.000000
    x...0024  UC..0024      1.000000
    x...0025  CNS..008     -1.000000   CNS..014      1.000000
    x...0025  UC..0025      1.000000
    x...0026  CNS..008     -1.000000   CNS..011      1.000000
    x...0026  UC..0026      1.000000
    x...0027  CNS..001     -1.000000   CNS..006      1.000000
    x...0027  UC..0027      1.000000
    x...0028  CNS..001      1.000000   CNS..006     -1.000000
    x...0028  UC..0028      1.000000
    x...0029  CNS..004     -1.000000   CNS..078      1.000000
    x...0029  UC..0029      1.000000
    x...0030  CNS..008     -1.000000   CNS..172      1.000000
    x...0030  UC..0030      1.000000
    x...0031  CNS..002     -1.000000   CNS..012      1.000000
    x...0031  UC..0031      1.000000
    x...0032  CNS..007     -1.000000   CNS..012      1.000000
    x...0032  UC..0032      1.000000
    x...0033  CNS..003     -1.000000   CNS..094      1.000000
    x...0033  UC..0033      1.000000
    x...0034  CNS..006     -1.000000   CNS..228      1.000000
    x...0034  UC..0034      1.000000
    x...0035  CNS..001     -1.000000   CNS..004      1.000000
    x...0035  UC..0035      1.000000
    x...0036  CNS..001      1.000000   CNS..004     -1.000000
    x...0036  UC..0036      1.000000
    x...0037  CNS..009     -1.000000   CNS..433      1.000000
    x...0037  UC..0037      1.000000
    x...0038  CNS..009     -1.000000   CNS..016      1.000000
    x...0038  UC..0038      1.000000
    x...0039  CNS..002     -1.000000   CNS..431      1.000000
    x...0039  UC..0039      1.000000
    x...0040  CNS..004     -1.000000   CNS..112      1.000000
    x...0040  UC..0040      1.000000
    x...0041  CNS..002     -1.000000   CNS..004      1.000000
    x...0041  UC..0041      1.000000
    x...0042  CNS..002      1.000000   CNS..004     -1.000000
    x...0042  UC..0042      1.000000
    x...0043  CNS..010     -1.000000   CNS..015      1.000000
    x...0043  UC..0043      1.000000
    x...0044  CNS..010     -1.000000   CNS..382      1.000000
    x...0044  UC..0044      1.000000
    x...0045  CNS..004     -1.000000   CNS..045      1.000000
    x...0045  UC..0045      1.000000
    x...0046  CNS..006     -1.000000   CNS..166      1.000000
    x...0046  UC..0046      1.000000
    x...0047  CNS..008     -1.000000   CNS..301      1.000000
    x...0047  UC..0047      1.000000
    x...0048  CNS..010     -1.000000   CNS..341      1.000000
    x...0048  UC..0048      1.000000
    x...0049  CNS..008      1.000000   CNS..011     -1.000000
    x...0049  UC..0049      1.000000
    x...0050  CNS..011     -1.000000   CNS..097      1.000000
    x...0050  UC..0050      1.000000
    x...0051  CNS..003     -1.000000   CNS..035      1.000000
    x...0051  UC..0051      1.000000
    x...0052  CNS..011     -1.000000   CNS..231      1.000000
    x...0052  UC..0052      1.000000
    x...0053  CNS..007      1.000000   CNS..012     -1.000000
    x...0053  UC..0053      1.000000
    x...0054  CNS..002      1.000000   CNS..012     -1.000000
    x...0054  UC..0054      1.000000
    x...0055  CNS..013     -1.000000   CNS..191      1.000000
    x...0055  UC..0055      1.000000
    x...0056  CNS..013     -1.000000   CNS..489      1.000000
    x...0056  UC..0056      1.000000
    x...0057  CNS..010     -1.000000   CNS..318      1.000000
    x...0057  UC..0057      1.000000
    x...0058  CNS..011     -1.000000   CNS..318      1.000000
    x...0058  UC..0058      1.000000
    x...0059  CNS..007     -1.000000   CNS..391      1.000000
    x...0059  UC..0059      1.000000
    x...0060  CNS..002     -1.000000   CNS..029      1.000000
    x...0060  UC..0060      1.000000
    x...0061  CNS..014     -1.000000   CNS..017      1.000000
    x...0061  UC..0061      1.000000
    x...0062  CNS..008      1.000000   CNS..014     -1.000000
    x...0062  UC..0062      1.000000
    x...0063  CNS..002     -1.000000   CNS..182      1.000000
    x...0063  UC..0063      1.000000
    x...0064  CNS..013     -1.000000   CNS..182      1.000000
    x...0064  UC..0064      1.000000
    x...0065  CNS..014     -1.000000   CNS..149      1.000000
    x...0065  UC..0065      1.000000
    x...0066  CNS..011     -1.000000   CNS..085      1.000000
    x...0066  UC..0066      1.000000
    x...0067  CNS..003     -1.000000   CNS..288      1.000000
    x...0067  UC..0067      1.000000
    x...0068  CNS..008     -1.000000   CNS..135      1.000000
    x...0068  UC..0068      1.000000
    x...0069  CNS..004      1.000000   CNS..009     -1.000000
    x...0069  UC..0069      1.000000
    x...0070  CNS..004     -1.000000   CNS..009      1.000000
    x...0070  UC..0070      1.000000
    x...0071  CNS..015     -1.000000   CNS..053      1.000000
    x...0071  UC..0071      1.000000
    x...0072  CNS..010      1.000000   CNS..015     -1.000000
    x...0072  UC..0072      1.000000
    x...0073  CNS..010     -1.000000   CNS..048      1.000000
    x...0073  UC..0073      1.000000
    x...0074  CNS..004     -1.000000   CNS..267      1.000000
    x...0074  UC..0074      1.000000
    x...0075  CNS..002     -1.000000   CNS..390      1.000000
    x...0075  UC..0075      1.000000
    x...0076  CNS..007     -1.000000   CNS..455      1.000000
    x...0076  UC..0076      1.000000
    x...0077  CNS..009      1.000000   CNS..016     -1.000000
    x...0077  UC..0077      1.000000
    x...0078  CNS..016     -1.000000   CNS..089      1.000000
    x...0078  UC..0078      1.000000
    x...0079  CNS..003      1.000000   CNS..017     -1.000000
    x...0079  UC..0079      1.000000
    x...0080  CNS..014      1.000000   CNS..017     -1.000000
    x...0080  UC..0080      1.000000
    x...0081  CNS..008     -1.000000   CNS..171      1.000000
    x...0081  UC..0081      1.000000
    x...0082  CNS..015     -1.000000   CNS..264      1.000000
    x...0082  UC..0082      1.000000
    x...0083  CNS..002     -1.000000   CNS..449      1.000000
    x...0083  UC..0083      1.000000
    x...0084  CNS..016     -1.000000   CNS..226      1.000000
    x...0084  UC..0084      1.000000
    x...0085  CNS..017     -1.000000   CNS..032      1.000000
    x...0085  UC..0085      1.000000
    x...0086  CNS..011     -1.000000   CNS..025      1.000000
    x...0086  UC..0086      1.000000
    x...0087  CNS..003     -1.000000   CNS..181      1.000000
    x...0087  UC..0087      1.000000
    x...0088  CNS..014     -1.000000   CNS..181      1.000000
    x...0088  UC..0088      1.000000
    x...0089  CNS..009     -1.000000   CNS..013      1.000000
    x...0089  UC..0089      1.000000
    x...0090  CNS..009      1.000000   CNS..013     -1.000000
    x...0090  UC..0090      1.000000
    x...0091  CNS..018     -1.000000   CNS..170      1.000000
    x...0091  UC..0091      1.000000
    x...0092  CNS..018     -1.000000   CNS..124      1.000000
    x...0092  UC..0092      1.000000
    x...0093  CNS..008     -1.000000   CNS..496      1.000000
    x...0093  UC..0093      1.000000
    x...0094  CNS..018     -1.000000   CNS..184      1.000000
    x...0094  UC..0094      1.000000
    x...0095  CNS..018     -1.000000   CNS..277      1.000000
    x...0095  UC..0095      1.000000
    x...0096  CNS..017     -1.000000   CNS..277      1.000000
    x...0096  UC..0096      1.000000
    x...0097  CNS..019     -1.000000   CNS..400      1.000000
    x...0097  UC..0097      1.000000
    x...0098  CNS..019     -1.000000   CNS..031      1.000000
    x...0098  UC..0098      1.000000
    x...0099  CNS..019     -1.000000   CNS..204      1.000000
    x...0099  UC..0099      1.000000
    x...0100  CNS..018     -1.000000   CNS..179      1.000000
    x...0100  UC..0100      1.000000
    x...0101  CNS..011      1.000000   CNS..017     -1.000000
    x...0101  UC..0101      1.000000
    x...0102  CNS..011     -1.000000   CNS..017      1.000000
    x...0102  UC..0102      1.000000
    x...0103  CNS..020     -1.000000   CNS..029      1.000000
    x...0103  UC..0103      1.000000
    x...0104  CNS..020     -1.000000   CNS..022      1.000000
    x...0104  UC..0104      1.000000
    x...0105  CNS..001     -1.000000   CNS..043      1.000000
    x...0105  UC..0105      1.000000
    x...0106  CNS..020     -1.000000   CNS..043      1.000000
    x...0106  UC..0106      1.000000
    x...0107  CNS..020     -1.000000   CNS..099      1.000000
    x...0107  UC..0107      1.000000
    x...0108  CNS..012     -1.000000   CNS..099      1.000000
    x...0108  UC..0108      1.000000
    x...0109  CNS..003      1.000000   CNS..021     -1.000000
    x...0109  UC..0109      1.000000
    x...0110  CNS..001      1.000000   CNS..021     -1.000000
    x...0110  UC..0110      1.000000
    x...0111  CNS..005     -1.000000   CNS..021      1.000000
    x...0111  UC..0111      1.000000
    x...0112  CNS..005      1.000000   CNS..021     -1.000000
    x...0112  UC..0112      1.000000
    x...0113  CNS..021     -1.000000   CNS..083      1.000000
    x...0113  UC..0113      1.000000
    x...0114  CNS..002     -1.000000   CNS..446      1.000000
    x...0114  UC..0114      1.000000
    x...0115  CNS..020      1.000000   CNS..022     -1.000000
    x...0115  UC..0115      1.000000
    x...0116  CNS..022     -1.000000   CNS..042      1.000000
    x...0116  UC..0116      1.000000
    x...0117  CNS..007      1.000000   CNS..023     -1.000000
    x...0117  UC..0117      1.000000
    x...0118  CNS..004      1.000000   CNS..023     -1.000000
    x...0118  UC..0118      1.000000
    x...0119  CNS..022     -1.000000   CNS..030      1.000000
    x...0119  UC..0119      1.000000
    x...0120  CNS..001     -1.000000   CNS..030      1.000000
    x...0120  UC..0120      1.000000
    x...0121  CNS..007     -1.000000   CNS..370      1.000000
    x...0121  UC..0121      1.000000
    x...0122  CNS..004     -1.000000   CNS..370      1.000000
    x...0122  UC..0122      1.000000
    x...0123  CNS..020     -1.000000   CNS..257      1.000000
    x...0123  UC..0123      1.000000
    x...0124  CNS..007     -1.000000   CNS..257      1.000000
    x...0124  UC..0124      1.000000
    x...0125  CNS..023     -1.000000   CNS..061      1.000000
    x...0125  UC..0125      1.000000
    x...0126  CNS..002     -1.000000   CNS..044      1.000000
    x...0126  UC..0126      1.000000
    x...0127  CNS..002      1.000000   CNS..024     -1.000000
    x...0127  UC..0127      1.000000
    x...0128  CNS..024     -1.000000   CNS..102      1.000000
    x...0128  UC..0128      1.000000
    x...0129  CNS..011      1.000000   CNS..025     -1.000000
    x...0129  UC..0129      1.000000
    x...0130  CNS..025     -1.000000   CNS..213      1.000000
    x...0130  UC..0130      1.000000
    x...0131  CNS..001      1.000000   CNS..002     -1.000000
    x...0131  UC..0131      1.000000
    x...0132  CNS..001     -1.000000   CNS..002      1.000000
    x...0132  UC..0132      1.000000
    x...0133  CNS..021     -1.000000   CNS..076      1.000000
    x...0133  UC..0133      1.000000
    x...0134  CNS..024     -1.000000   CNS..076      1.000000
    x...0134  UC..0134      1.000000
    x...0135  CNS..026     -1.000000   CNS..124      1.000000
    x...0135  UC..0135      1.000000
    x...0136  CNS..026     -1.000000   CNS..108      1.000000
    x...0136  UC..0136      1.000000
    x...0137  CNS..017     -1.000000   CNS..216      1.000000
    x...0137  UC..0137      1.000000
    x...0138  CNS..025     -1.000000   CNS..216      1.000000
    x...0138  UC..0138      1.000000
    x...0139  CNS..014      1.000000   CNS..018     -1.000000
    x...0139  UC..0139      1.000000
    x...0140  CNS..014     -1.000000   CNS..018      1.000000
    x...0140  UC..0140      1.000000
    x...0141  CNS..018     -1.000000   CNS..152      1.000000
    x...0141  UC..0141      1.000000
    x...0142  CNS..025     -1.000000   CNS..125      1.000000
    x...0142  UC..0142      1.000000
    x...0143  CNS..026     -1.000000   CNS..488      1.000000
    x...0143  UC..0143      1.000000
    x...0144  CNS..008     -1.000000   CNS..316      1.000000
    x...0144  UC..0144      1.000000
    x...0145  CNS..027     -1.000000   CNS..117      1.000000
    x...0145  UC..0145      1.000000
    x...0146  CNS..027     -1.000000   CNS..403      1.000000
    x...0146  UC..0146      1.000000
    x...0147  CNS..028     -1.000000   CNS..226      1.000000
    x...0147  UC..0147      1.000000
    x...0148  CNS..028     -1.000000   CNS..186      1.000000
    x...0148  UC..0148      1.000000
    x...0149  CNS..001      1.000000   CNS..005     -1.000000
    x...0149  UC..0149      1.000000
    x...0150  CNS..001     -1.000000   CNS..005      1.000000
    x...0150  UC..0150      1.000000
    x...0151  CNS..009     -1.000000   CNS..028      1.000000
    x...0151  UC..0151      1.000000
    x...0152  CNS..009      1.000000   CNS..028     -1.000000
    x...0152  UC..0152      1.000000
    x...0153  CNS..002      1.000000   CNS..029     -1.000000
    x...0153  UC..0153      1.000000
    x...0154  CNS..020      1.000000   CNS..029     -1.000000
    x...0154  UC..0154      1.000000
    x...0155  CNS..001      1.000000   CNS..030     -1.000000
    x...0155  UC..0155      1.000000
    x...0156  CNS..022      1.000000   CNS..030     -1.000000
    x...0156  UC..0156      1.000000
    x...0157  CNS..012     -1.000000   CNS..366      1.000000
    x...0157  UC..0157      1.000000
    x...0158  CNS..029     -1.000000   CNS..366      1.000000
    x...0158  UC..0158      1.000000
    x...0159  CNS..019      1.000000   CNS..031     -1.000000
    x...0159  UC..0159      1.000000
    x...0160  CNS..031     -1.000000   CNS..032      1.000000
    x...0160  UC..0160      1.000000
    x...0161  CNS..001      1.000000   CNS..022     -1.000000
    x...0161  UC..0161      1.000000
    x...0162  CNS..001     -1.000000   CNS..022      1.000000
    x...0162  UC..0162      1.000000
    x...0163  CNS..017      1.000000   CNS..019     -1.000000
    x...0163  UC..0163      1.000000
    x...0164  CNS..017     -1.000000   CNS..019      1.000000
    x...0164  UC..0164      1.000000
    x...0165  CNS..031      1.000000   CNS..032     -1.000000
    x...0165  UC..0165      1.000000
    x...0166  CNS..017      1.000000   CNS..032     -1.000000
    x...0166  UC..0166      1.000000
    x...0167  CNS..022     -1.000000   CNS..427      1.000000
    x...0167  UC..0167      1.000000
    x...0168  CNS..001     -1.000000   CNS..185      1.000000
    x...0168  UC..0168      1.000000
    x...0169  CNS..027     -1.000000   CNS..225      1.000000
    x...0169  UC..0169      1.000000
    x...0170  CNS..006     -1.000000   CNS..225      1.000000
    x...0170  UC..0170      1.000000
    x...0171  CNS..033     -1.000000   CNS..169      1.000000
    x...0171  UC..0171      1.000000
    x...0172  CNS..033     -1.000000   CNS..131      1.000000
    x...0172  UC..0172      1.000000
    x...0173  CNS..034     -1.000000   CNS..144      1.000000
    x...0173  UC..0173      1.000000
    x...0174  CNS..034     -1.000000   CNS..080      1.000000
    x...0174  UC..0174      1.000000
    x...0175  CNS..035     -1.000000   CNS..480      1.000000
    x...0175  UC..0175      1.000000
    x...0176  CNS..003      1.000000   CNS..035     -1.000000
    x...0176  UC..0176      1.000000
    x...0177  CNS..005     -1.000000   CNS..120      1.000000
    x...0177  UC..0177      1.000000
    x...0178  CNS..027     -1.000000   CNS..120      1.000000
    x...0178  UC..0178      1.000000
    x...0179  CNS..006     -1.000000   CNS..035      1.000000
    x...0179  UC..0179      1.000000
    x...0180  CNS..006      1.000000   CNS..035     -1.000000
    x...0180  UC..0180      1.000000
    x...0181  CNS..036     -1.000000   CNS..166      1.000000
    x...0181  UC..0181      1.000000
    x...0182  CNS..036     -1.000000   CNS..037      1.000000
    x...0182  UC..0182      1.000000
    x...0183  CNS..017     -1.000000   CNS..031      1.000000
    x...0183  UC..0183      1.000000
    x...0184  CNS..017      1.000000   CNS..031     -1.000000
    x...0184  UC..0184      1.000000
    x...0185  CNS..005     -1.000000   CNS..073      1.000000
    x...0185  UC..0185      1.000000
    x...0186  CNS..027     -1.000000   CNS..459      1.000000
    x...0186  UC..0186      1.000000
    x...0187  CNS..001     -1.000000   CNS..307      1.000000
    x...0187  UC..0187      1.000000
    x...0188  CNS..029     -1.000000   CNS..307      1.000000
    x...0188  UC..0188      1.000000
    x...0189  CNS..036      1.000000   CNS..037     -1.000000
    x...0189  UC..0189      1.000000
    x...0190  CNS..037     -1.000000   CNS..169      1.000000
    x...0190  UC..0190      1.000000
    x...0191  CNS..004     -1.000000   CNS..006      1.000000
    x...0191  UC..0191      1.000000
    x...0192  CNS..004      1.000000   CNS..006     -1.000000
    x...0192  UC..0192      1.000000
    x...0193  CNS..038     -1.000000   CNS..233      1.000000
    x...0193  UC..0193      1.000000
    x...0194  CNS..006      1.000000   CNS..038     -1.000000
    x...0194  UC..0194      1.000000
    x...0195  CNS..031     -1.000000   CNS..179      1.000000
    x...0195  UC..0195      1.000000
    x...0196  CNS..031      1.000000   CNS..179     -1.000000
    x...0196  UC..0196      1.000000
    x...0197  CNS..039     -1.000000   CNS..319      1.000000
    x...0197  UC..0197      1.000000
    x...0198  CNS..039     -1.000000   CNS..481      1.000000
    x...0198  UC..0198      1.000000
    x...0199  CNS..002      1.000000   CNS..040     -1.000000
    x...0199  UC..0199      1.000000
    x...0200  CNS..040     -1.000000   CNS..072      1.000000
    x...0200  UC..0200      1.000000
    x...0201  CNS..033     -1.000000   CNS..281      1.000000
    x...0201  UC..0201      1.000000
    x...0202  CNS..006     -1.000000   CNS..118      1.000000
    x...0202  UC..0202      1.000000
    x...0203  CNS..037     -1.000000   CNS..070      1.000000
    x...0203  UC..0203      1.000000
    x...0204  CNS..006     -1.000000   CNS..070      1.000000
    x...0204  UC..0204      1.000000
    x...0205  CNS..011     -1.000000   CNS..153      1.000000
    x...0205  UC..0205      1.000000
    x...0206  CNS..006     -1.000000   CNS..331      1.000000
    x...0206  UC..0206      1.000000
    x...0207  CNS..013      1.000000   CNS..028     -1.000000
    x...0207  UC..0207      1.000000
    x...0208  CNS..013     -1.000000   CNS..028      1.000000
    x...0208  UC..0208      1.000000
    x...0209  CNS..010      1.000000   CNS..037     -1.000000
    x...0209  UC..0209      1.000000
    x...0210  CNS..010     -1.000000   CNS..037      1.000000
    x...0210  UC..0210      1.000000
    x...0211  CNS..006      1.000000   CNS..037     -1.000000
    x...0211  UC..0211      1.000000
    x...0212  CNS..006     -1.000000   CNS..037      1.000000
    x...0212  UC..0212      1.000000
    x...0213  CNS..004      1.000000   CNS..040     -1.000000
    x...0213  UC..0213      1.000000
    x...0214  CNS..004     -1.000000   CNS..040      1.000000
    x...0214  UC..0214      1.000000
    x...0215  CNS..027     -1.000000   CNS..271      1.000000
    x...0215  UC..0215      1.000000
    x...0216  CNS..034     -1.000000   CNS..074      1.000000
    x...0216  UC..0216      1.000000
    x...0217  CNS..039     -1.000000   CNS..363      1.000000
    x...0217  UC..0217      1.000000
    x...0218  CNS..005     -1.000000   CNS..363      1.000000
    x...0218  UC..0218      1.000000
    x...0219  CNS..035     -1.000000   CNS..038      1.000000
    x...0219  UC..0219      1.000000
    x...0220  CNS..035      1.000000   CNS..038     -1.000000
    x...0220  UC..0220      1.000000
    x...0221  CNS..041     -1.000000   CNS..193      1.000000
    x...0221  UC..0221      1.000000
    x...0222  CNS..041     -1.000000   CNS..439      1.000000
    x...0222  UC..0222      1.000000
    x...0223  CNS..011     -1.000000   CNS..151      1.000000
    x...0223  UC..0223      1.000000
    x...0224  CNS..041     -1.000000   CNS..046      1.000000
    x...0224  UC..0224      1.000000
    x...0225  CNS..022      1.000000   CNS..042     -1.000000
    x...0225  UC..0225      1.000000
    x...0226  CNS..042     -1.000000   CNS..391      1.000000
    x...0226  UC..0226      1.000000
    x...0227  CNS..022     -1.000000   CNS..276      1.000000
    x...0227  UC..0227      1.000000
    x...0228  CNS..007     -1.000000   CNS..276      1.000000
    x...0228  UC..0228      1.000000
    x...0229  CNS..020      1.000000   CNS..043     -1.000000
    x...0229  UC..0229      1.000000
    x...0230  CNS..001      1.000000   CNS..043     -1.000000
    x...0230  UC..0230      1.000000
    x...0231  CNS..002      1.000000   CNS..044     -1.000000
    x...0231  UC..0231      1.000000
    x...0232  CNS..044     -1.000000   CNS..122      1.000000
    x...0232  UC..0232      1.000000
    x...0233  CNS..004     -1.000000   CNS..044      1.000000
    x...0233  UC..0233      1.000000
    x...0234  CNS..004      1.000000   CNS..044     -1.000000
    x...0234  UC..0234      1.000000
    x...0235  CNS..002     -1.000000   CNS..023      1.000000
    x...0235  UC..0235      1.000000
    x...0236  CNS..002      1.000000   CNS..023     -1.000000
    x...0236  UC..0236      1.000000
    x...0237  CNS..035     -1.000000   CNS..079      1.000000
    x...0237  UC..0237      1.000000
    x...0238  CNS..017     -1.000000   CNS..079      1.000000
    x...0238  UC..0238      1.000000
    x...0239  CNS..045     -1.000000   CNS..131      1.000000
    x...0239  UC..0239      1.000000
    x...0240  CNS..004      1.000000   CNS..045     -1.000000
    x...0240  UC..0240      1.000000
    x...0241  CNS..001     -1.000000   CNS..092      1.000000
    x...0241  UC..0241      1.000000
    x...0242  CNS..042     -1.000000   CNS..325      1.000000
    x...0242  UC..0242      1.000000
    x...0243  CNS..010     -1.000000   CNS..173      1.000000
    x...0243  UC..0243      1.000000
    x...0244  CNS..008     -1.000000   CNS..173      1.000000
    x...0244  UC..0244      1.000000
    x...0245  CNS..040     -1.000000   CNS..492      1.000000
    x...0245  UC..0245      1.000000
    x...0246  CNS..028     -1.000000   CNS..055      1.000000
    x...0246  UC..0246      1.000000
    x...0247  CNS..017     -1.000000   CNS..107      1.000000
    x...0247  UC..0247      1.000000
    x...0248  CNS..031     -1.000000   CNS..457      1.000000
    x...0248  UC..0248      1.000000
    x...0249  CNS..041      1.000000   CNS..046     -1.000000
    x...0249  UC..0249      1.000000
    x...0250  CNS..046     -1.000000   CNS..224      1.000000
    x...0250  UC..0250      1.000000
    x...0251  CNS..004     -1.000000   CNS..033      1.000000
    x...0251  UC..0251      1.000000
    x...0252  CNS..004      1.000000   CNS..033     -1.000000
    x...0252  UC..0252      1.000000
    x...0253  CNS..008      1.000000   CNS..046     -1.000000
    x...0253  UC..0253      1.000000
    x...0254  CNS..008     -1.000000   CNS..046      1.000000
    x...0254  UC..0254      1.000000
    x...0255  CNS..022     -1.000000   CNS..397      1.000000
    x...0255  UC..0255      1.000000
    x...0256  CNS..043     -1.000000   CNS..397      1.000000
    x...0256  UC..0256      1.000000
    x...0257  CNS..037     -1.000000   CNS..265      1.000000
    x...0257  UC..0257      1.000000
    x...0258  CNS..004     -1.000000   CNS..265      1.000000
    x...0258  UC..0258      1.000000
    x...0259  CNS..041     -1.000000   CNS..049      1.000000
    x...0259  UC..0259      1.000000
    x...0260  CNS..011     -1.000000   CNS..154      1.000000
    x...0260  UC..0260      1.000000
    x...0261  CNS..020     -1.000000   CNS..068      1.000000
    x...0261  UC..0261      1.000000
    x...0262  CNS..001     -1.000000   CNS..059      1.000000
    x...0262  UC..0262      1.000000
    x...0263  CNS..045     -1.000000   CNS..247      1.000000
    x...0263  UC..0263      1.000000
    x...0264  CNS..045      1.000000   CNS..247     -1.000000
    x...0264  UC..0264      1.000000
    x...0265  CNS..047     -1.000000   CNS..172      1.000000
    x...0265  UC..0265      1.000000
    x...0266  CNS..047     -1.000000   CNS..287      1.000000
    x...0266  UC..0266      1.000000
    x...0267  CNS..008     -1.000000   CNS..067      1.000000
    x...0267  UC..0267      1.000000
    x...0268  CNS..004     -1.000000   CNS..279      1.000000
    x...0268  UC..0268      1.000000
    x...0269  CNS..008     -1.000000   CNS..082      1.000000
    x...0269  UC..0269      1.000000
    x...0270  CNS..004     -1.000000   CNS..444      1.000000
    x...0270  UC..0270      1.000000
    x...0271  CNS..048     -1.000000   CNS..423      1.000000
    x...0271  UC..0271      1.000000
    x...0272  CNS..010      1.000000   CNS..048     -1.000000
    x...0272  UC..0272      1.000000
    x...0273  CNS..049     -1.000000   CNS..219      1.000000
    x...0273  UC..0273      1.000000
    x...0274  CNS..041      1.000000   CNS..049     -1.000000
    x...0274  UC..0274      1.000000
    x...0275  CNS..015      1.000000   CNS..048     -1.000000
    x...0275  UC..0275      1.000000
    x...0276  CNS..015     -1.000000   CNS..048      1.000000
    x...0276  UC..0276      1.000000
    x...0277  CNS..010     -1.000000   CNS..470      1.000000
    x...0277  UC..0277      1.000000
    x...0278  CNS..049     -1.000000   CNS..477      1.000000
    x...0278  UC..0278      1.000000
    x...0279  CNS..050     -1.000000   CNS..227      1.000000
    x...0279  UC..0279      1.000000
    x...0280  CNS..050     -1.000000   CNS..174      1.000000
    x...0280  UC..0280      1.000000
    x...0281  CNS..004     -1.000000   CNS..416      1.000000
    x...0281  UC..0281      1.000000
    x...0282  CNS..010     -1.000000   CNS..411      1.000000
    x...0282  UC..0282      1.000000
    x...0283  CNS..051     -1.000000   CNS..102      1.000000
    x...0283  UC..0283      1.000000
    x...0284  CNS..001      1.000000   CNS..051     -1.000000
    x...0284  UC..0284      1.000000
    x...0285  CNS..024     -1.000000   CNS..338      1.000000
    x...0285  UC..0285      1.000000
    x...0286  CNS..001     -1.000000   CNS..343      1.000000
    x...0286  UC..0286      1.000000
    x...0287  CNS..027     -1.000000   CNS..087      1.000000
    x...0287  UC..0287      1.000000
    x...0288  CNS..050     -1.000000   CNS..052      1.000000
    x...0288  UC..0288      1.000000
    x...0289  CNS..006     -1.000000   CNS..088      1.000000
    x...0289  UC..0289      1.000000
    x...0290  CNS..005     -1.000000   CNS..132      1.000000
    x...0290  UC..0290      1.000000
    x...0291  CNS..041     -1.000000   CNS..346      1.000000
    x...0291  UC..0291      1.000000
    x...0292  CNS..011     -1.000000   CNS..346      1.000000
    x...0292  UC..0292      1.000000
    x...0293  CNS..001     -1.000000   CNS..337      1.000000
    x...0293  UC..0293      1.000000
    x...0294  CNS..024     -1.000000   CNS..060      1.000000
    x...0294  UC..0294      1.000000
    x...0295  CNS..050      1.000000   CNS..052     -1.000000
    x...0295  UC..0295      1.000000
    x...0296  CNS..052     -1.000000   CNS..238      1.000000
    x...0296  UC..0296      1.000000
    x...0297  CNS..053     -1.000000   CNS..054      1.000000
    x...0297  UC..0297      1.000000
    x...0298  CNS..015      1.000000   CNS..053     -1.000000
    x...0298  UC..0298      1.000000
    x...0299  CNS..054     -1.000000   CNS..123      1.000000
    x...0299  UC..0299      1.000000
    x...0300  CNS..053      1.000000   CNS..054     -1.000000
    x...0300  UC..0300      1.000000
    x...0301  CNS..008     -1.000000   CNS..054      1.000000
    x...0301  UC..0301      1.000000
    x...0302  CNS..008      1.000000   CNS..054     -1.000000
    x...0302  UC..0302      1.000000
    x...0303  CNS..027      1.000000   CNS..050     -1.000000
    x...0303  UC..0303      1.000000
    x...0304  CNS..027     -1.000000   CNS..050      1.000000
    x...0304  UC..0304      1.000000
    x...0305  CNS..004     -1.000000   CNS..499      1.000000
    x...0305  UC..0305      1.000000
    x...0306  CNS..015     -1.000000   CNS..262      1.000000
    x...0306  UC..0306      1.000000
    x...0307  CNS..006     -1.000000   CNS..156      1.000000
    x...0307  UC..0307      1.000000
    x...0308  CNS..052     -1.000000   CNS..156      1.000000
    x...0308  UC..0308      1.000000
    x...0309  CNS..028      1.000000   CNS..055     -1.000000
    x...0309  UC..0309      1.000000
    x...0310  CNS..055     -1.000000   CNS..248      1.000000
    x...0310  UC..0310      1.000000
    x...0311  CNS..056     -1.000000   CNS..316      1.000000
    x...0311  UC..0311      1.000000
    x...0312  CNS..056     -1.000000   CNS..119      1.000000
    x...0312  UC..0312      1.000000
    x...0313  CNS..054     -1.000000   CNS..146      1.000000
    x...0313  UC..0313      1.000000
    x...0314  CNS..015     -1.000000   CNS..146      1.000000
    x...0314  UC..0314      1.000000
    x...0315  CNS..008      1.000000   CNS..053     -1.000000
    x...0315  UC..0315      1.000000
    x...0316  CNS..008     -1.000000   CNS..053      1.000000
    x...0316  UC..0316      1.000000
    x...0317  CNS..014     -1.000000   CNS..461      1.000000
    x...0317  UC..0317      1.000000
    x...0318  CNS..056     -1.000000   CNS..461      1.000000
    x...0318  UC..0318      1.000000
    x...0319  CNS..057     -1.000000   CNS..262      1.000000
    x...0319  UC..0319      1.000000
    x...0320  CNS..057     -1.000000   CNS..355      1.000000
    x...0320  UC..0320      1.000000
    x...0321  CNS..028      1.000000   CNS..040     -1.000000
    x...0321  UC..0321      1.000000
    x...0322  CNS..028     -1.000000   CNS..040      1.000000
    x...0322  UC..0322      1.000000
    x...0323  CNS..002      1.000000   CNS..055     -1.000000
    x...0323  UC..0323      1.000000
    x...0324  CNS..002     -1.000000   CNS..055      1.000000
    x...0324  UC..0324      1.000000
    x...0325  CNS..018      1.000000   CNS..056     -1.000000
    x...0325  UC..0325      1.000000
    x...0326  CNS..018     -1.000000   CNS..056      1.000000
    x...0326  UC..0326      1.000000
    x...0327  CNS..004     -1.000000   CNS..098      1.000000
    x...0327  UC..0327      1.000000
    x...0328  CNS..015     -1.000000   CNS..086      1.000000
    x...0328  UC..0328      1.000000
    x...0329  CNS..058     -1.000000   CNS..160      1.000000
    x...0329  UC..0329      1.000000
    x...0330  CNS..003      1.000000   CNS..058     -1.000000
    x...0330  UC..0330      1.000000
    x...0331  CNS..001      1.000000   CNS..059     -1.000000
    x...0331  UC..0331      1.000000
    x...0332  CNS..059     -1.000000   CNS..436      1.000000
    x...0332  UC..0332      1.000000
    x...0333  CNS..020     -1.000000   CNS..218      1.000000
    x...0333  UC..0333      1.000000
    x...0334  CNS..001     -1.000000   CNS..158      1.000000
    x...0334  UC..0334      1.000000
    x...0335  CNS..004     -1.000000   CNS..234      1.000000
    x...0335  UC..0335      1.000000
    x...0336  CNS..003     -1.000000   CNS..071      1.000000
    x...0336  UC..0336      1.000000
    x...0337  CNS..024      1.000000   CNS..060     -1.000000
    x...0337  UC..0337      1.000000
    x...0338  CNS..060     -1.000000   CNS..472      1.000000
    x...0338  UC..0338      1.000000
    x...0339  CNS..061     -1.000000   CNS..308      1.000000
    x...0339  UC..0339      1.000000
    x...0340  CNS..023      1.000000   CNS..061     -1.000000
    x...0340  UC..0340      1.000000
    x...0341  CNS..059     -1.000000   CNS..065      1.000000
    x...0341  UC..0341      1.000000
    x...0342  CNS..043     -1.000000   CNS..065      1.000000
    x...0342  UC..0342      1.000000
    x...0343  CNS..044     -1.000000   CNS..395      1.000000
    x...0343  UC..0343      1.000000
    x...0344  CNS..023     -1.000000   CNS..164      1.000000
    x...0344  UC..0344      1.000000
    x...0345  CNS..062     -1.000000   CNS..071      1.000000
    x...0345  UC..0345      1.000000
    x...0346  CNS..062     -1.000000   CNS..234      1.000000
    x...0346  UC..0346      1.000000
    x...0347  CNS..063     -1.000000   CNS..411      1.000000
    x...0347  UC..0347      1.000000
    x...0348  CNS..063     -1.000000   CNS..416      1.000000
    x...0348  UC..0348      1.000000
    x...0349  CNS..064     -1.000000   CNS..238      1.000000
    x...0349  UC..0349      1.000000
    x...0350  CNS..064     -1.000000   CNS..136      1.000000
    x...0350  UC..0350      1.000000
    x...0351  CNS..060     -1.000000   CNS..357      1.000000
    x...0351  UC..0351      1.000000
    x...0352  CNS..051     -1.000000   CNS..330      1.000000
    x...0352  UC..0352      1.000000
    x...0353  CNS..044     -1.000000   CNS..340      1.000000
    x...0353  UC..0353      1.000000
    x...0354  CNS..023     -1.000000   CNS..210      1.000000
    x...0354  UC..0354      1.000000
    x...0355  CNS..001     -1.000000   CNS..024      1.000000
    x...0355  UC..0355      1.000000
    x...0356  CNS..001      1.000000   CNS..024     -1.000000
    x...0356  UC..0356      1.000000
    x...0357  CNS..004     -1.000000   CNS..249      1.000000
    x...0357  UC..0357      1.000000
    x...0358  CNS..003     -1.000000   CNS..249      1.000000
    x...0358  UC..0358      1.000000
    x...0359  CNS..058     -1.000000   CNS..062      1.000000
    x...0359  UC..0359      1.000000
    x...0360  CNS..058      1.000000   CNS..062     -1.000000
    x...0360  UC..0360      1.000000
    x...0361  CNS..043      1.000000   CNS..065     -1.000000
    x...0361  UC..0361      1.000000
    x...0362  CNS..059      1.000000   CNS..065     -1.000000
    x...0362  UC..0362      1.000000
    x...0363  CNS..063     -1.000000   CNS..212      1.000000
    x...0363  UC..0363      1.000000
    x...0364  CNS..048     -1.000000   CNS..212      1.000000
    x...0364  UC..0364      1.000000
    x...0365  CNS..043     -1.000000   CNS..101      1.000000
    x...0365  UC..0365      1.000000
    x...0366  CNS..059     -1.000000   CNS..239      1.000000
    x...0366  UC..0366      1.000000
    x...0367  CNS..004     -1.000000   CNS..015      1.000000
    x...0367  UC..0367      1.000000
    x...0368  CNS..004      1.000000   CNS..015     -1.000000
    x...0368  UC..0368      1.000000
    x...0369  CNS..066     -1.000000   CNS..205      1.000000
    x...0369  UC..0369      1.000000
    x...0370  CNS..066     -1.000000   CNS..488      1.000000
    x...0370  UC..0370      1.000000
    x...0371  CNS..010     -1.000000   CNS..484      1.000000
    x...0371  UC..0371      1.000000
    x...0372  CNS..004     -1.000000   CNS..484      1.000000
    x...0372  UC..0372      1.000000
    x...0373  CNS..067     -1.000000   CNS..286      1.000000
    x...0373  UC..0373      1.000000
    x...0374  CNS..008      1.000000   CNS..067     -1.000000
    x...0374  UC..0374      1.000000
    x...0375  CNS..026      1.000000   CNS..056     -1.000000
    x...0375  UC..0375      1.000000
    x...0376  CNS..026     -1.000000   CNS..056      1.000000
    x...0376  UC..0376      1.000000
    x...0377  CNS..064     -1.000000   CNS..428      1.000000
    x...0377  UC..0377      1.000000
    x...0378  CNS..050     -1.000000   CNS..428      1.000000
    x...0378  UC..0378      1.000000
    x...0379  CNS..020     -1.000000   CNS..065      1.000000
    x...0379  UC..0379      1.000000
    x...0380  CNS..020      1.000000   CNS..065     -1.000000
    x...0380  UC..0380      1.000000
    x...0381  CNS..008     -1.000000   CNS..250      1.000000
    x...0381  UC..0381      1.000000
    x...0382  CNS..004     -1.000000   CNS..075      1.000000
    x...0382  UC..0382      1.000000
    x...0383  CNS..006      1.000000   CNS..064     -1.000000
    x...0383  UC..0383      1.000000
    x...0384  CNS..006     -1.000000   CNS..064      1.000000
    x...0384  UC..0384      1.000000
    x...0385  CNS..068     -1.000000   CNS..143      1.000000
    x...0385  UC..0385      1.000000
    x...0386  CNS..020      1.000000   CNS..068     -1.000000
    x...0386  UC..0386      1.000000
    x...0387  CNS..062     -1.000000   CNS..114      1.000000
    x...0387  UC..0387      1.000000
    x...0388  CNS..008     -1.000000   CNS..114      1.000000
    x...0388  UC..0388      1.000000
    x...0389  CNS..068     -1.000000   CNS..106      1.000000
    x...0389  UC..0389      1.000000
    x...0390  CNS..065     -1.000000   CNS..110      1.000000
    x...0390  UC..0390      1.000000
    x...0391  CNS..069     -1.000000   CNS..270      1.000000
    x...0391  UC..0391      1.000000
    x...0392  CNS..069     -1.000000   CNS..301      1.000000
    x...0392  UC..0392      1.000000
    x...0393  CNS..006      1.000000   CNS..070     -1.000000
    x...0393  UC..0393      1.000000
    x...0394  CNS..037      1.000000   CNS..070     -1.000000
    x...0394  UC..0394      1.000000
    x...0395  CNS..070      1.000000   CNS..166     -1.000000
    x...0395  UC..0395      1.000000
    x...0396  CNS..070     -1.000000   CNS..166      1.000000
    x...0396  UC..0396      1.000000
    x...0397  CNS..069     -1.000000   CNS..243      1.000000
    x...0397  UC..0397      1.000000
    x...0398  CNS..046     -1.000000   CNS..243      1.000000
    x...0398  UC..0398      1.000000
    x...0399  CNS..003      1.000000   CNS..071     -1.000000
    x...0399  UC..0399      1.000000
    x...0400  CNS..062      1.000000   CNS..071     -1.000000
    x...0400  UC..0400      1.000000
    x...0401  CNS..040      1.000000   CNS..072     -1.000000
    x...0401  UC..0401      1.000000
    x...0402  CNS..072     -1.000000   CNS..433      1.000000
    x...0402  UC..0402      1.000000
    x...0403  CNS..004     -1.000000   CNS..072      1.000000
    x...0403  UC..0403      1.000000
    x...0404  CNS..004      1.000000   CNS..072     -1.000000
    x...0404  UC..0404      1.000000
    x...0405  CNS..003     -1.000000   CNS..463      1.000000
    x...0405  UC..0405      1.000000
    x...0406  CNS..062     -1.000000   CNS..463      1.000000
    x...0406  UC..0406      1.000000
    x...0407  CNS..028     -1.000000   CNS..072      1.000000
    x...0407  UC..0407      1.000000
    x...0408  CNS..028      1.000000   CNS..072     -1.000000
    x...0408  UC..0408      1.000000
    x...0409  CNS..033      1.000000   CNS..070     -1.000000
    x...0409  UC..0409      1.000000
    x...0410  CNS..033     -1.000000   CNS..070      1.000000
    x...0410  UC..0410      1.000000
    x...0411  CNS..008      1.000000   CNS..071     -1.000000
    x...0411  UC..0411      1.000000
    x...0412  CNS..008     -1.000000   CNS..071      1.000000
    x...0412  UC..0412      1.000000
    x...0413  CNS..073     -1.000000   CNS..165      1.000000
    x...0413  UC..0413      1.000000
    x...0414  CNS..005      1.000000   CNS..073     -1.000000
    x...0414  UC..0414      1.000000
    x...0415  CNS..005      1.000000   CNS..027     -1.000000
    x...0415  UC..0415      1.000000
    x...0416  CNS..005     -1.000000   CNS..027      1.000000
    x...0416  UC..0416      1.000000
    x...0417  CNS..005     -1.000000   CNS..129      1.000000
    x...0417  UC..0417      1.000000
    x...0418  CNS..027     -1.000000   CNS..129      1.000000
    x...0418  UC..0418      1.000000
    x...0419  CNS..054     -1.000000   CNS..067      1.000000
    x...0419  UC..0419      1.000000
    x...0420  CNS..054      1.000000   CNS..067     -1.000000
    x...0420  UC..0420      1.000000
    x...0421  CNS..010     -1.000000   CNS..405      1.000000
    x...0421  UC..0421      1.000000
    x...0422  CNS..069     -1.000000   CNS..254      1.000000
    x...0422  UC..0422      1.000000
    x...0423  CNS..034      1.000000   CNS..074     -1.000000
    x...0423  UC..0423      1.000000
    x...0424  CNS..074     -1.000000   CNS..271      1.000000
    x...0424  UC..0424      1.000000
    x...0425  CNS..039      1.000000   CNS..074     -1.000000
    x...0425  UC..0425      1.000000
    x...0426  CNS..039     -1.000000   CNS..074      1.000000
    x...0426  UC..0426      1.000000
    x...0427  CNS..068     -1.000000   CNS..293      1.000000
    x...0427  UC..0427      1.000000
    x...0428  CNS..001     -1.000000   CNS..293      1.000000
    x...0428  UC..0428      1.000000
    x...0429  CNS..004      1.000000   CNS..075     -1.000000
    x...0429  UC..0429      1.000000
    x...0430  CNS..075     -1.000000   CNS..150      1.000000
    x...0430  UC..0430      1.000000
    x...0431  CNS..024      1.000000   CNS..076     -1.000000
    x...0431  UC..0431      1.000000
    x...0432  CNS..021      1.000000   CNS..076     -1.000000
    x...0432  UC..0432      1.000000
    x...0433  CNS..047     -1.000000   CNS..468      1.000000
    x...0433  UC..0433      1.000000
    x...0434  CNS..075     -1.000000   CNS..256      1.000000
    x...0434  UC..0434      1.000000
    x...0435  CNS..077     -1.000000   CNS..232      1.000000
    x...0435  UC..0435      1.000000
    x...0436  CNS..077     -1.000000   CNS..193      1.000000
    x...0436  UC..0436      1.000000
    x...0437  CNS..119      1.000000   CNS..124     -1.000000
    x...0437  UC..0437      1.000000
    x...0438  CNS..119     -1.000000   CNS..124      1.000000
    x...0438  UC..0438      1.000000
    x...0439  CNS..078     -1.000000   CNS..093      1.000000
    x...0439  UC..0439      1.000000
    x...0440  CNS..004      1.000000   CNS..078     -1.000000
    x...0440  UC..0440      1.000000
    x...0441  CNS..021     -1.000000   CNS..215      1.000000
    x...0441  UC..0441      1.000000
    x...0442  CNS..024     -1.000000   CNS..215      1.000000
    x...0442  UC..0442      1.000000
    x...0443  CNS..017      1.000000   CNS..079     -1.000000
    x...0443  UC..0443      1.000000
    x...0444  CNS..035      1.000000   CNS..079     -1.000000
    x...0444  UC..0444      1.000000
    x...0445  CNS..034      1.000000   CNS..080     -1.000000
    x...0445  UC..0445      1.000000
    x...0446  CNS..080     -1.000000   CNS..319      1.000000
    x...0446  UC..0446      1.000000
    x...0447  CNS..008      1.000000   CNS..078     -1.000000
    x...0447  UC..0447      1.000000
    x...0448  CNS..008     -1.000000   CNS..078      1.000000
    x...0448  UC..0448      1.000000
    x...0449  CNS..081     -1.000000   CNS..439      1.000000
    x...0449  UC..0449      1.000000
    x...0450  CNS..081     -1.000000   CNS..270      1.000000
    x...0450  UC..0450      1.000000
    x...0451  CNS..027      1.000000   CNS..034     -1.000000
    x...0451  UC..0451      1.000000
    x...0452  CNS..027     -1.000000   CNS..034      1.000000
    x...0452  UC..0452      1.000000
    x...0453  CNS..041     -1.000000   CNS..069      1.000000
    x...0453  UC..0453      1.000000
    x...0454  CNS..041      1.000000   CNS..069     -1.000000
    x...0454  UC..0454      1.000000
    x...0455  CNS..017     -1.000000   CNS..035      1.000000
    x...0455  UC..0455      1.000000
    x...0456  CNS..017      1.000000   CNS..035     -1.000000
    x...0456  UC..0456      1.000000
    x...0457  CNS..082     -1.000000   CNS..209      1.000000
    x...0457  UC..0457      1.000000
    x...0458  CNS..008      1.000000   CNS..082     -1.000000
    x...0458  UC..0458      1.000000
    x...0459  CNS..004     -1.000000   CNS..047      1.000000
    x...0459  UC..0459      1.000000
    x...0460  CNS..004      1.000000   CNS..047     -1.000000
    x...0460  UC..0460      1.000000
    x...0461  CNS..010     -1.000000   CNS..383      1.000000
    x...0461  UC..0461      1.000000
    x...0462  CNS..041     -1.000000   CNS..383      1.000000
    x...0462  UC..0462      1.000000
    x...0463  CNS..021      1.000000   CNS..024     -1.000000
    x...0463  UC..0463      1.000000
    x...0464  CNS..021     -1.000000   CNS..024      1.000000
    x...0464  UC..0464      1.000000
    x...0465  CNS..083     -1.000000   CNS..456      1.000000
    x...0465  UC..0465      1.000000
    x...0466  CNS..021      1.000000   CNS..083     -1.000000
    x...0466  UC..0466      1.000000
    x...0467  CNS..021     -1.000000   CNS..352      1.000000
    x...0467  UC..0467      1.000000
    x...0468  CNS..002     -1.000000   CNS..352      1.000000
    x...0468  UC..0468      1.000000
    x...0469  CNS..078     -1.000000   CNS..082      1.000000
    x...0469  UC..0469      1.000000
    x...0470  CNS..078      1.000000   CNS..082     -1.000000
    x...0470  UC..0470      1.000000
    x...0471  CNS..005      1.000000   CNS..084     -1.000000
    x...0471  UC..0471      1.000000
    x...0472  CNS..084     -1.000000   CNS..414      1.000000
    x...0472  UC..0472      1.000000
    x...0473  CNS..069     -1.000000   CNS..105      1.000000
    x...0473  UC..0473      1.000000
    x...0474  CNS..041     -1.000000   CNS..105      1.000000
    x...0474  UC..0474      1.000000
    x...0475  CNS..010     -1.000000   CNS..240      1.000000
    x...0475  UC..0475      1.000000
    x...0476  CNS..041     -1.000000   CNS..240      1.000000
    x...0476  UC..0476      1.000000
    x...0477  CNS..067     -1.000000   CNS..075      1.000000
    x...0477  UC..0477      1.000000
    x...0478  CNS..067      1.000000   CNS..075     -1.000000
    x...0478  UC..0478      1.000000
    x...0479  CNS..005     -1.000000   CNS..386      1.000000
    x...0479  UC..0479      1.000000
    x...0480  CNS..034     -1.000000   CNS..386      1.000000
    x...0480  UC..0480      1.000000
    x...0481  CNS..034     -1.000000   CNS..039      1.000000
    x...0481  UC..0481      1.000000
    x...0482  CNS..034      1.000000   CNS..039     -1.000000
    x...0482  UC..0482      1.000000
    x...0483  CNS..011      1.000000   CNS..085     -1.000000
    x...0483  UC..0483      1.000000
    x...0484  CNS..085     -1.000000   CNS..170      1.000000
    x...0484  UC..0484      1.000000
    x...0485  CNS..002     -1.000000   CNS..021      1.000000
    x...0485  UC..0485      1.000000
    x...0486  CNS..002      1.000000   CNS..021     -1.000000
    x...0486  UC..0486      1.000000
    x...0487  CNS..015      1.000000   CNS..086     -1.000000
    x...0487  UC..0487      1.000000
    x...0488  CNS..086     -1.000000   CNS..103      1.000000
    x...0488  UC..0488      1.000000
    x...0489  CNS..087     -1.000000   CNS..192      1.000000
    x...0489  UC..0489      1.000000
    x...0490  CNS..027      1.000000   CNS..087     -1.000000
    x...0490  UC..0490      1.000000
    x...0491  CNS..062      1.000000   CNS..082     -1.000000
    x...0491  UC..0491      1.000000
    x...0492  CNS..062     -1.000000   CNS..082      1.000000
    x...0492  UC..0492      1.000000
    x...0493  CNS..027      1.000000   CNS..064     -1.000000
    x...0493  UC..0493      1.000000
    x...0494  CNS..027     -1.000000   CNS..064      1.000000
    x...0494  UC..0494      1.000000
    x...0495  CNS..006      1.000000   CNS..087     -1.000000
    x...0495  UC..0495      1.000000
    x...0496  CNS..006     -1.000000   CNS..087      1.000000
    x...0496  UC..0496      1.000000
    x...0497  CNS..004     -1.000000   CNS..283      1.000000
    x...0497  UC..0497      1.000000
    x...0498  CNS..015     -1.000000   CNS..168      1.000000
    x...0498  UC..0498      1.000000
    x...0499  CNS..088     -1.000000   CNS..303      1.000000
    x...0499  UC..0499      1.000000
    x...0500  CNS..006      1.000000   CNS..088     -1.000000
    x...0500  UC..0500      1.000000
    x...0501  CNS..018     -1.000000   CNS..464      1.000000
    x...0501  UC..0501      1.000000
    x...0502  CNS..011     -1.000000   CNS..090      1.000000
    x...0502  UC..0502      1.000000
    x...0503  CNS..016      1.000000   CNS..089     -1.000000
    x...0503  UC..0503      1.000000
    x...0504  CNS..089     -1.000000   CNS..139      1.000000
    x...0504  UC..0504      1.000000
    x...0505  CNS..011      1.000000   CNS..090     -1.000000
    x...0505  UC..0505      1.000000
    x...0506  CNS..090     -1.000000   CNS..157      1.000000
    x...0506  UC..0506      1.000000
    x...0507  CNS..091     -1.000000   CNS..289      1.000000
    x...0507  UC..0507      1.000000
    x...0508  CNS..091     -1.000000   CNS..453      1.000000
    x...0508  UC..0508      1.000000
    x...0509  CNS..092     -1.000000   CNS..325      1.000000
    x...0509  UC..0509      1.000000
    x...0510  CNS..001      1.000000   CNS..092     -1.000000
    x...0510  UC..0510      1.000000
    x...0511  CNS..004      1.000000   CNS..054     -1.000000
    x...0511  UC..0511      1.000000
    x...0512  CNS..004     -1.000000   CNS..054      1.000000
    x...0512  UC..0512      1.000000
    x...0513  CNS..001     -1.000000   CNS..042      1.000000
    x...0513  UC..0513      1.000000
    x...0514  CNS..001      1.000000   CNS..042     -1.000000
    x...0514  UC..0514      1.000000
    x...0515  CNS..011     -1.000000   CNS..018      1.000000
    x...0515  UC..0515      1.000000
    x...0516  CNS..011      1.000000   CNS..018     -1.000000
    x...0516  UC..0516      1.000000
    x...0517  CNS..013      1.000000   CNS..016     -1.000000
    x...0517  UC..0517      1.000000
    x...0518  CNS..013     -1.000000   CNS..016      1.000000
    x...0518  UC..0518      1.000000
    x...0519  CNS..011     -1.000000   CNS..372      1.000000
    x...0519  UC..0519      1.000000
    x...0520  CNS..018     -1.000000   CNS..372      1.000000
    x...0520  UC..0520      1.000000
    x...0521  CNS..093     -1.000000   CNS..385      1.000000
    x...0521  UC..0521      1.000000
    x...0522  CNS..078      1.000000   CNS..093     -1.000000
    x...0522  UC..0522      1.000000
    x...0523  CNS..009     -1.000000   CNS..244      1.000000
    x...0523  UC..0523      1.000000
    x...0524  CNS..009      1.000000   CNS..244     -1.000000
    x...0524  UC..0524      1.000000
    x...0525  CNS..094     -1.000000   CNS..228      1.000000
    x...0525  UC..0525      1.000000
    x...0526  CNS..003      1.000000   CNS..094     -1.000000
    x...0526  UC..0526      1.000000
    x...0527  CNS..086     -1.000000   CNS..201      1.000000
    x...0527  UC..0527      1.000000
    x...0528  CNS..057     -1.000000   CNS..201      1.000000
    x...0528  UC..0528      1.000000
    x...0529  CNS..095     -1.000000   CNS..459      1.000000
    x...0529  UC..0529      1.000000
    x...0530  CNS..095     -1.000000   CNS..165      1.000000
    x...0530  UC..0530      1.000000
    x...0531  CNS..005     -1.000000   CNS..447      1.000000
    x...0531  UC..0531      1.000000
    x...0532  CNS..006     -1.000000   CNS..217      1.000000
    x...0532  UC..0532      1.000000
    x...0533  CNS..008     -1.000000   CNS..207      1.000000
    x...0533  UC..0533      1.000000
    x...0534  CNS..090     -1.000000   CNS..207      1.000000
    x...0534  UC..0534      1.000000
    x...0535  CNS..319      1.000000   CNS..363     -1.000000
    x...0535  UC..0535      1.000000
    x...0536  CNS..319     -1.000000   CNS..363      1.000000
    x...0536  UC..0536      1.000000
    x...0537  CNS..005     -1.000000   CNS..454      1.000000
    x...0537  UC..0537      1.000000
    x...0538  CNS..006     -1.000000   CNS..454      1.000000
    x...0538  UC..0538      1.000000
    x...0539  CNS..007      1.000000   CNS..092     -1.000000
    x...0539  UC..0539      1.000000
    x...0540  CNS..007     -1.000000   CNS..092      1.000000
    x...0540  UC..0540      1.000000
    x...0541  CNS..096     -1.000000   CNS..248      1.000000
    x...0541  UC..0541      1.000000
    x...0542  CNS..096     -1.000000   CNS..492      1.000000
    x...0542  UC..0542      1.000000
    x...0543  CNS..011      1.000000   CNS..097     -1.000000
    x...0543  UC..0543      1.000000
    x...0544  CNS..097     -1.000000   CNS..327      1.000000
    x...0544  UC..0544      1.000000
    x...0545  CNS..004     -1.000000   CNS..498      1.000000
    x...0545  UC..0545      1.000000
    x...0546  CNS..093     -1.000000   CNS..183      1.000000
    x...0546  UC..0546      1.000000
    x...0547  CNS..003     -1.000000   CNS..006      1.000000
    x...0547  UC..0547      1.000000
    x...0548  CNS..003      1.000000   CNS..006     -1.000000
    x...0548  UC..0548      1.000000
    x...0549  CNS..079     -1.000000   CNS..142      1.000000
    x...0549  UC..0549      1.000000
    x...0550  CNS..003     -1.000000   CNS..261      1.000000
    x...0550  UC..0550      1.000000
    x...0551  CNS..098     -1.000000   CNS..103      1.000000
    x...0551  UC..0551      1.000000
    x...0552  CNS..004      1.000000   CNS..098     -1.000000
    x...0552  UC..0552      1.000000
    x...0553  CNS..012      1.000000   CNS..099     -1.000000
    x...0553  UC..0553      1.000000
    x...0554  CNS..020      1.000000   CNS..099     -1.000000
    x...0554  UC..0554      1.000000
    x...0555  CNS..015      1.000000   CNS..098     -1.000000
    x...0555  UC..0555      1.000000
    x...0556  CNS..015     -1.000000   CNS..098      1.000000
    x...0556  UC..0556      1.000000
    x...0557  CNS..011     -1.000000   CNS..133      1.000000
    x...0557  UC..0557      1.000000
    x...0558  CNS..038     -1.000000   CNS..353      1.000000
    x...0558  UC..0558      1.000000
    x...0559  CNS..027     -1.000000   CNS..073      1.000000
    x...0559  UC..0559      1.000000
    x...0560  CNS..027      1.000000   CNS..073     -1.000000
    x...0560  UC..0560      1.000000
    x...0561  CNS..020     -1.000000   CNS..161      1.000000
    x...0561  UC..0561      1.000000
    x...0562  CNS..012     -1.000000   CNS..161      1.000000
    x...0562  UC..0562      1.000000
    x...0563  CNS..005     -1.000000   CNS..034      1.000000
    x...0563  UC..0563      1.000000
    x...0564  CNS..005      1.000000   CNS..034     -1.000000
    x...0564  UC..0564      1.000000
    x...0565  CNS..100     -1.000000   CNS..116      1.000000
    x...0565  UC..0565      1.000000
    x...0566  CNS..100     -1.000000   CNS..160      1.000000
    x...0566  UC..0566      1.000000
    x...0567  CNS..101     -1.000000   CNS..239      1.000000
    x...0567  UC..0567      1.000000
    x...0568  CNS..043      1.000000   CNS..101     -1.000000
    x...0568  UC..0568      1.000000
    x...0569  CNS..003     -1.000000   CNS..211      1.000000
    x...0569  UC..0569      1.000000
    x...0570  CNS..006     -1.000000   CNS..115      1.000000
    x...0570  UC..0570      1.000000
    x...0571  CNS..024      1.000000   CNS..102     -1.000000
    x...0571  UC..0571      1.000000
    x...0572  CNS..051      1.000000   CNS..102     -1.000000
    x...0572  UC..0572      1.000000
    x...0573  CNS..062     -1.000000   CNS..100      1.000000
    x...0573  UC..0573      1.000000
    x...0574  CNS..062      1.000000   CNS..100     -1.000000
    x...0574  UC..0574      1.000000
    x...0575  CNS..024     -1.000000   CNS..051      1.000000
    x...0575  UC..0575      1.000000
    x...0576  CNS..024      1.000000   CNS..051     -1.000000
    x...0576  UC..0576      1.000000
    x...0577  CNS..086      1.000000   CNS..103     -1.000000
    x...0577  UC..0577      1.000000
    x...0578  CNS..098      1.000000   CNS..103     -1.000000
    x...0578  UC..0578      1.000000
    x...0579  CNS..104     -1.000000   CNS..140      1.000000
    x...0579  UC..0579      1.000000
    x...0580  CNS..104     -1.000000   CNS..233      1.000000
    x...0580  UC..0580      1.000000
    x...0581  CNS..041      1.000000   CNS..105     -1.000000
    x...0581  UC..0581      1.000000
    x...0582  CNS..069      1.000000   CNS..105     -1.000000
    x...0582  UC..0582      1.000000
    x...0583  CNS..028     -1.000000   CNS..096      1.000000
    x...0583  UC..0583      1.000000
    x...0584  CNS..028      1.000000   CNS..096     -1.000000
    x...0584  UC..0584      1.000000
    x...0585  CNS..086     -1.000000   CNS..111      1.000000
    x...0585  UC..0585      1.000000
    x...0586  CNS..098     -1.000000   CNS..111      1.000000
    x...0586  UC..0586      1.000000
    x...0587  CNS..057      1.000000   CNS..103     -1.000000
    x...0587  UC..0587      1.000000
    x...0588  CNS..057     -1.000000   CNS..103      1.000000
    x...0588  UC..0588      1.000000
    x...0589  CNS..106     -1.000000   CNS..138      1.000000
    x...0589  UC..0589      1.000000
    x...0590  CNS..068      1.000000   CNS..106     -1.000000
    x...0590  UC..0590      1.000000
    x...0591  CNS..038      1.000000   CNS..097     -1.000000
    x...0591  UC..0591      1.000000
    x...0592  CNS..038     -1.000000   CNS..097      1.000000
    x...0592  UC..0592      1.000000
    x...0593  CNS..102      1.000000   CNS..452     -1.000000
    x...0593  UC..0593      1.000000
    x...0594  CNS..102     -1.000000   CNS..452      1.000000
    x...0594  UC..0594      1.000000
    x...0595  CNS..040     -1.000000   CNS..055      1.000000
    x...0595  UC..0595      1.000000
    x...0596  CNS..040      1.000000   CNS..055     -1.000000
    x...0596  UC..0596      1.000000
    x...0597  CNS..065     -1.000000   CNS..101      1.000000
    x...0597  UC..0597      1.000000
    x...0598  CNS..065      1.000000   CNS..101     -1.000000
    x...0598  UC..0598      1.000000
    x...0599  CNS..107     -1.000000   CNS..384      1.000000
    x...0599  UC..0599      1.000000
    x...0600  CNS..017      1.000000   CNS..107     -1.000000
    x...0600  UC..0600      1.000000
    x...0601  CNS..065     -1.000000   CNS..068      1.000000
    x...0601  UC..0601      1.000000
    x...0602  CNS..065      1.000000   CNS..068     -1.000000
    x...0602  UC..0602      1.000000
    x...0603  CNS..006      1.000000   CNS..097     -1.000000
    x...0603  UC..0603      1.000000
    x...0604  CNS..006     -1.000000   CNS..097      1.000000
    x...0604  UC..0604      1.000000
    x...0605  CNS..026      1.000000   CNS..108     -1.000000
    x...0605  UC..0605      1.000000
    x...0606  CNS..108     -1.000000   CNS..314      1.000000
    x...0606  UC..0606      1.000000
    x...0607  CNS..107     -1.000000   CNS..179      1.000000
    x...0607  UC..0607      1.000000
    x...0608  CNS..107      1.000000   CNS..179     -1.000000
    x...0608  UC..0608      1.000000
    x...0609  CNS..109     -1.000000   CNS..154      1.000000
    x...0609  UC..0609      1.000000
    x...0610  CNS..109     -1.000000   CNS..163      1.000000
    x...0610  UC..0610      1.000000
    x...0611  CNS..032     -1.000000   CNS..155      1.000000
    x...0611  UC..0611      1.000000
    x...0612  CNS..107     -1.000000   CNS..155      1.000000
    x...0612  UC..0612      1.000000
    x...0613  CNS..020     -1.000000   CNS..110      1.000000
    x...0613  UC..0613      1.000000
    x...0614  CNS..020      1.000000   CNS..110     -1.000000
    x...0614  UC..0614      1.000000
    x...0615  CNS..043     -1.000000   CNS..059      1.000000
    x...0615  UC..0615      1.000000
    x...0616  CNS..043      1.000000   CNS..059     -1.000000
    x...0616  UC..0616      1.000000
    x...0617  CNS..100     -1.000000   CNS..113      1.000000
    x...0617  UC..0617      1.000000
    x...0618  CNS..003     -1.000000   CNS..297      1.000000
    x...0618  UC..0618      1.000000
    x...0619  CNS..047     -1.000000   CNS..296      1.000000
    x...0619  UC..0619      1.000000
    x...0620  CNS..078     -1.000000   CNS..296      1.000000
    x...0620  UC..0620      1.000000
    x...0621  CNS..067      1.000000   CNS..123     -1.000000
    x...0621  UC..0621      1.000000
    x...0622  CNS..067     -1.000000   CNS..123      1.000000
    x...0622  UC..0622      1.000000
    x...0623  CNS..065      1.000000   CNS..110     -1.000000
    x...0623  UC..0623      1.000000
    x...0624  CNS..110     -1.000000   CNS..138      1.000000
    x...0624  UC..0624      1.000000
    x...0625  CNS..109     -1.000000   CNS..295      1.000000
    x...0625  UC..0625      1.000000
    x...0626  CNS..041     -1.000000   CNS..295      1.000000
    x...0626  UC..0626      1.000000
    x...0627  CNS..068      1.000000   CNS..110     -1.000000
    x...0627  UC..0627      1.000000
    x...0628  CNS..068     -1.000000   CNS..110      1.000000
    x...0628  UC..0628      1.000000
    x...0629  CNS..098      1.000000   CNS..111     -1.000000
    x...0629  UC..0629      1.000000
    x...0630  CNS..086      1.000000   CNS..111     -1.000000
    x...0630  UC..0630      1.000000
    x...0631  CNS..065     -1.000000   CNS..380      1.000000
    x...0631  UC..0631      1.000000
    x...0632  CNS..106     -1.000000   CNS..380      1.000000
    x...0632  UC..0632      1.000000
    x...0633  CNS..004      1.000000   CNS..112     -1.000000
    x...0633  UC..0633      1.000000
    x...0634  CNS..112     -1.000000   CNS..404      1.000000
    x...0634  UC..0634      1.000000
    x...0635  CNS..057     -1.000000   CNS..460      1.000000
    x...0635  UC..0635      1.000000
    x...0636  CNS..098     -1.000000   CNS..460      1.000000
    x...0636  UC..0636      1.000000
    x...0637  CNS..113     -1.000000   CNS..311      1.000000
    x...0637  UC..0637      1.000000
    x...0638  CNS..100      1.000000   CNS..113     -1.000000
    x...0638  UC..0638      1.000000
    x...0639  CNS..008      1.000000   CNS..114     -1.000000
    x...0639  UC..0639      1.000000
    x...0640  CNS..062      1.000000   CNS..114     -1.000000
    x...0640  UC..0640      1.000000
    x...0641  CNS..129     -1.000000   CNS..362      1.000000
    x...0641  UC..0641      1.000000
    x...0642  CNS..129      1.000000   CNS..362     -1.000000
    x...0642  UC..0642      1.000000
    x...0643  CNS..003     -1.000000   CNS..100      1.000000
    x...0643  UC..0643      1.000000
    x...0644  CNS..003      1.000000   CNS..100     -1.000000
    x...0644  UC..0644      1.000000
    x...0645  CNS..041     -1.000000   CNS..235      1.000000
    x...0645  UC..0645      1.000000
    x...0646  CNS..069     -1.000000   CNS..130      1.000000
    x...0646  UC..0646      1.000000
    x...0647  CNS..010     -1.000000   CNS..374      1.000000
    x...0647  UC..0647      1.000000
    x...0648  CNS..109     -1.000000   CNS..374      1.000000
    x...0648  UC..0648      1.000000
    x...0649  CNS..014     -1.000000   CNS..026      1.000000
    x...0649  UC..0649      1.000000
    x...0650  CNS..014      1.000000   CNS..026     -1.000000
    x...0650  UC..0650      1.000000
    x...0651  CNS..004     -1.000000   CNS..187      1.000000
    x...0651  UC..0651      1.000000
    x...0652  CNS..002     -1.000000   CNS..187      1.000000
    x...0652  UC..0652      1.000000
    x...0653  CNS..098     -1.000000   CNS..274      1.000000
    x...0653  UC..0653      1.000000
    x...0654  CNS..086     -1.000000   CNS..274      1.000000
    x...0654  UC..0654      1.000000
    x...0655  CNS..006      1.000000   CNS..115     -1.000000
    x...0655  UC..0655      1.000000
    x...0656  CNS..115     -1.000000   CNS..476      1.000000
    x...0656  UC..0656      1.000000
    x...0657  CNS..013     -1.000000   CNS..112      1.000000
    x...0657  UC..0657      1.000000
    x...0658  CNS..013      1.000000   CNS..112     -1.000000
    x...0658  UC..0658      1.000000
    x...0659  CNS..116     -1.000000   CNS..236      1.000000
    x...0659  UC..0659      1.000000
    x...0660  CNS..100      1.000000   CNS..116     -1.000000
    x...0660  UC..0660      1.000000
    x...0661  CNS..117     -1.000000   CNS..175      1.000000
    x...0661  UC..0661      1.000000
    x...0662  CNS..027      1.000000   CNS..117     -1.000000
    x...0662  UC..0662      1.000000
    x...0663  CNS..113     -1.000000   CNS..451      1.000000
    x...0663  UC..0663      1.000000
    x...0664  CNS..058     -1.000000   CNS..222      1.000000
    x...0664  UC..0664      1.000000
    x...0665  CNS..098     -1.000000   CNS..291      1.000000
    x...0665  UC..0665      1.000000
    x...0666  CNS..086     -1.000000   CNS..291      1.000000
    x...0666  UC..0666      1.000000
    x...0667  CNS..027      1.000000   CNS..039     -1.000000
    x...0667  UC..0667      1.000000
    x...0668  CNS..027     -1.000000   CNS..039      1.000000
    x...0668  UC..0668      1.000000
    x...0669  CNS..006      1.000000   CNS..118     -1.000000
    x...0669  UC..0669      1.000000
    x...0670  CNS..118     -1.000000   CNS..281      1.000000
    x...0670  UC..0670      1.000000
    x...0671  CNS..056      1.000000   CNS..119     -1.000000
    x...0671  UC..0671      1.000000
    x...0672  CNS..119     -1.000000   CNS..200      1.000000
    x...0672  UC..0672      1.000000
    x...0673  CNS..027      1.000000   CNS..120     -1.000000
    x...0673  UC..0673      1.000000
    x...0674  CNS..005      1.000000   CNS..120     -1.000000
    x...0674  UC..0674      1.000000
    x...0675  CNS..010      1.000000   CNS..105     -1.000000
    x...0675  UC..0675      1.000000
    x...0676  CNS..010     -1.000000   CNS..105      1.000000
    x...0676  UC..0676      1.000000
    x...0677  CNS..014     -1.000000   CNS..335      1.000000
    x...0677  UC..0677      1.000000
    x...0678  CNS..026     -1.000000   CNS..127      1.000000
    x...0678  UC..0678      1.000000
    x...0679  CNS..120     -1.000000   CNS..159      1.000000
    x...0679  UC..0679      1.000000
    x...0680  CNS..039     -1.000000   CNS..159      1.000000
    x...0680  UC..0680      1.000000
    x...0681  CNS..033     -1.000000   CNS..145      1.000000
    x...0681  UC..0681      1.000000
    x...0682  CNS..006     -1.000000   CNS..145      1.000000
    x...0682  UC..0682      1.000000
    x...0683  CNS..121     -1.000000   CNS..353      1.000000
    x...0683  UC..0683      1.000000
    x...0684  CNS..121     -1.000000   CNS..133      1.000000
    x...0684  UC..0684      1.000000
    x...0685  CNS..115     -1.000000   CNS..228      1.000000
    x...0685  UC..0685      1.000000
    x...0686  CNS..115      1.000000   CNS..228     -1.000000
    x...0686  UC..0686      1.000000
    x...0687  CNS..044      1.000000   CNS..122     -1.000000
    x...0687  UC..0687      1.000000
    x...0688  CNS..122     -1.000000   CNS..466      1.000000
    x...0688  UC..0688      1.000000
    x...0689  CNS..123     -1.000000   CNS..453      1.000000
    x...0689  UC..0689      1.000000
    x...0690  CNS..054      1.000000   CNS..123     -1.000000
    x...0690  UC..0690      1.000000
    x...0691  CNS..424     -1.000000   CNS..435      1.000000
    x...0691  UC..0691      1.000000
    x...0692  CNS..424      1.000000   CNS..435     -1.000000
    x...0692  UC..0692      1.000000
    x...0693  CNS..004      1.000000   CNS..118     -1.000000
    x...0693  UC..0693      1.000000
    x...0694  CNS..004     -1.000000   CNS..118      1.000000
    x...0694  UC..0694      1.000000
    x...0695  CNS..018      1.000000   CNS..124     -1.000000
    x...0695  UC..0695      1.000000
    x...0696  CNS..026      1.000000   CNS..124     -1.000000
    x...0696  UC..0696      1.000000
    x...0697  CNS..004     -1.000000   CNS..123      1.000000
    x...0697  UC..0697      1.000000
    x...0698  CNS..004      1.000000   CNS..123     -1.000000
    x...0698  UC..0698      1.000000
    x...0699  CNS..044     -1.000000   CNS..474      1.000000
    x...0699  UC..0699      1.000000
    x...0700  CNS..061     -1.000000   CNS..474      1.000000
    x...0700  UC..0700      1.000000
    x...0701  CNS..117     -1.000000   CNS..259      1.000000
    x...0701  UC..0701      1.000000
    x...0702  CNS..074     -1.000000   CNS..259      1.000000
    x...0702  UC..0702      1.000000
    x...0703  CNS..116     -1.000000   CNS..180      1.000000
    x...0703  UC..0703      1.000000
    x...0704  CNS..003     -1.000000   CNS..180      1.000000
    x...0704  UC..0704      1.000000
    x...0705  CNS..025      1.000000   CNS..125     -1.000000
    x...0705  UC..0705      1.000000
    x...0706  CNS..125     -1.000000   CNS..273      1.000000
    x...0706  UC..0706      1.000000
    x...0707  CNS..126     -1.000000   CNS..466      1.000000
    x...0707  UC..0707      1.000000
    x...0708  CNS..126     -1.000000   CNS..308      1.000000
    x...0708  UC..0708      1.000000
    x...0709  CNS..026      1.000000   CNS..127     -1.000000
    x...0709  UC..0709      1.000000
    x...0710  CNS..127     -1.000000   CNS..335      1.000000
    x...0710  UC..0710      1.000000
    x...0711  CNS..128     -1.000000   CNS..314      1.000000
    x...0711  UC..0711      1.000000
    x...0712  CNS..128     -1.000000   CNS..149      1.000000
    x...0712  UC..0712      1.000000
    x...0713  CNS..001      1.000000   CNS..120     -1.000000
    x...0713  UC..0713      1.000000
    x...0714  CNS..001     -1.000000   CNS..120      1.000000
    x...0714  UC..0714      1.000000
    x...0715  CNS..014     -1.000000   CNS..124      1.000000
    x...0715  UC..0715      1.000000
    x...0716  CNS..014      1.000000   CNS..124     -1.000000
    x...0716  UC..0716      1.000000
    x...0717  CNS..056      1.000000   CNS..124     -1.000000
    x...0717  UC..0717      1.000000
    x...0718  CNS..056     -1.000000   CNS..124      1.000000
    x...0718  UC..0718      1.000000
    x...0719  CNS..071      1.000000   CNS..114     -1.000000
    x...0719  UC..0719      1.000000
    x...0720  CNS..071     -1.000000   CNS..114      1.000000
    x...0720  UC..0720      1.000000
    x...0721  CNS..012     -1.000000   CNS..242      1.000000
    x...0721  UC..0721      1.000000
    x...0722  CNS..020     -1.000000   CNS..242      1.000000
    x...0722  UC..0722      1.000000
    x...0723  CNS..035      1.000000   CNS..121     -1.000000
    x...0723  UC..0723      1.000000
    x...0724  CNS..035     -1.000000   CNS..121      1.000000
    x...0724  UC..0724      1.000000
    x...0725  CNS..027      1.000000   CNS..129     -1.000000
    x...0725  UC..0725      1.000000
    x...0726  CNS..005      1.000000   CNS..129     -1.000000
    x...0726  UC..0726      1.000000
    x...0727  CNS..011      1.000000   CNS..125     -1.000000
    x...0727  UC..0727      1.000000
    x...0728  CNS..011     -1.000000   CNS..125      1.000000
    x...0728  UC..0728      1.000000
    x...0729  CNS..069      1.000000   CNS..130     -1.000000
    x...0729  UC..0729      1.000000
    x...0730  CNS..130     -1.000000   CNS..235      1.000000
    x...0730  UC..0730      1.000000
    x...0731  CNS..019      1.000000   CNS..125     -1.000000
    x...0731  UC..0731      1.000000
    x...0732  CNS..019     -1.000000   CNS..125      1.000000
    x...0732  UC..0732      1.000000
    x...0733  CNS..130     -1.000000   CNS..245      1.000000
    x...0733  UC..0733      1.000000
    x...0734  CNS..105     -1.000000   CNS..245      1.000000
    x...0734  UC..0734      1.000000
    x...0735  CNS..033      1.000000   CNS..131     -1.000000
    x...0735  UC..0735      1.000000
    x...0736  CNS..045      1.000000   CNS..131     -1.000000
    x...0736  UC..0736      1.000000
    x...0737  CNS..005      1.000000   CNS..132     -1.000000
    x...0737  UC..0737      1.000000
    x...0738  CNS..132     -1.000000   CNS..303      1.000000
    x...0738  UC..0738      1.000000
    x...0739  CNS..033      1.000000   CNS..045     -1.000000
    x...0739  UC..0739      1.000000
    x...0740  CNS..033     -1.000000   CNS..045      1.000000
    x...0740  UC..0740      1.000000
    x...0741  CNS..056      1.000000   CNS..127     -1.000000
    x...0741  UC..0741      1.000000
    x...0742  CNS..056     -1.000000   CNS..127      1.000000
    x...0742  UC..0742      1.000000
    x...0743  CNS..008     -1.000000   CNS..134      1.000000
    x...0743  UC..0743      1.000000
    x...0744  CNS..062     -1.000000   CNS..134      1.000000
    x...0744  UC..0744      1.000000
    x...0745  CNS..128     -1.000000   CNS..471      1.000000
    x...0745  UC..0745      1.000000
    x...0746  CNS..026     -1.000000   CNS..471      1.000000
    x...0746  UC..0746      1.000000
    x...0747  CNS..026     -1.000000   CNS..128      1.000000
    x...0747  UC..0747      1.000000
    x...0748  CNS..026      1.000000   CNS..128     -1.000000
    x...0748  UC..0748      1.000000
    x...0749  CNS..121      1.000000   CNS..133     -1.000000
    x...0749  UC..0749      1.000000
    x...0750  CNS..011      1.000000   CNS..133     -1.000000
    x...0750  UC..0750      1.000000
    x...0751  CNS..127     -1.000000   CNS..128      1.000000
    x...0751  UC..0751      1.000000
    x...0752  CNS..127      1.000000   CNS..128     -1.000000
    x...0752  UC..0752      1.000000
    x...0753  CNS..026      1.000000   CNS..119     -1.000000
    x...0753  UC..0753      1.000000
    x...0754  CNS..026     -1.000000   CNS..119      1.000000
    x...0754  UC..0754      1.000000
    x...0755  CNS..062      1.000000   CNS..134     -1.000000
    x...0755  UC..0755      1.000000
    x...0756  CNS..008      1.000000   CNS..134     -1.000000
    x...0756  UC..0756      1.000000
    x...0757  CNS..005      1.000000   CNS..088     -1.000000
    x...0757  UC..0757      1.000000
    x...0758  CNS..005     -1.000000   CNS..088      1.000000
    x...0758  UC..0758      1.000000
    x...0759  CNS..008      1.000000   CNS..135     -1.000000
    x...0759  UC..0759      1.000000
    x...0760  CNS..135     -1.000000   CNS..220      1.000000
    x...0760  UC..0760      1.000000
    x...0761  CNS..064      1.000000   CNS..136     -1.000000
    x...0761  UC..0761      1.000000
    x...0762  CNS..136     -1.000000   CNS..192      1.000000
    x...0762  UC..0762      1.000000
    x...0763  CNS..137     -1.000000   CNS..457      1.000000
    x...0763  UC..0763      1.000000
    x...0764  CNS..137     -1.000000   CNS..384      1.000000
    x...0764  UC..0764      1.000000
    x...0765  CNS..073      1.000000   CNS..129     -1.000000
    x...0765  UC..0765      1.000000
    x...0766  CNS..073     -1.000000   CNS..129      1.000000
    x...0766  UC..0766      1.000000
    x...0767  CNS..008      1.000000   CNS..062     -1.000000
    x...0767  UC..0767      1.000000
    x...0768  CNS..008     -1.000000   CNS..062      1.000000
    x...0768  UC..0768      1.000000
    x...0769  CNS..082      1.000000   CNS..134     -1.000000
    x...0769  UC..0769      1.000000
    x...0770  CNS..082     -1.000000   CNS..134      1.000000
    x...0770  UC..0770      1.000000
    x...0771  CNS..110      1.000000   CNS..138     -1.000000
    x...0771  UC..0771      1.000000
    x...0772  CNS..106      1.000000   CNS..138     -1.000000
    x...0772  UC..0772      1.000000
    x...0773  CNS..066     -1.000000   CNS..124      1.000000
    x...0773  UC..0773      1.000000
    x...0774  CNS..066      1.000000   CNS..124     -1.000000
    x...0774  UC..0774      1.000000
    x...0775  CNS..089      1.000000   CNS..139     -1.000000
    x...0775  UC..0775      1.000000
    x...0776  CNS..139     -1.000000   CNS..191      1.000000
    x...0776  UC..0776      1.000000
    x...0777  CNS..140     -1.000000   CNS..368      1.000000
    x...0777  UC..0777      1.000000
    x...0778  CNS..104      1.000000   CNS..140     -1.000000
    x...0778  UC..0778      1.000000
    x...0779  CNS..038      1.000000   CNS..140     -1.000000
    x...0779  UC..0779      1.000000
    x...0780  CNS..038     -1.000000   CNS..140      1.000000
    x...0780  UC..0780      1.000000
    x...0781  CNS..014     -1.000000   CNS..135      1.000000
    x...0781  UC..0781      1.000000
    x...0782  CNS..014      1.000000   CNS..135     -1.000000
    x...0782  UC..0782      1.000000
    x...0783  CNS..141     -1.000000   CNS..472      1.000000
    x...0783  UC..0783      1.000000
    x...0784  CNS..141     -1.000000   CNS..337      1.000000
    x...0784  UC..0784      1.000000
    x...0785  CNS..106     -1.000000   CNS..110      1.000000
    x...0785  UC..0785      1.000000
    x...0786  CNS..106      1.000000   CNS..110     -1.000000
    x...0786  UC..0786      1.000000
    x...0787  CNS..142     -1.000000   CNS..261      1.000000
    x...0787  UC..0787      1.000000
    x...0788  CNS..079      1.000000   CNS..142     -1.000000
    x...0788  UC..0788      1.000000
    x...0789  CNS..054      1.000000   CNS..289     -1.000000
    x...0789  UC..0789      1.000000
    x...0790  CNS..054     -1.000000   CNS..289      1.000000
    x...0790  UC..0790      1.000000
    x...0791  CNS..006      1.000000   CNS..136     -1.000000
    x...0791  UC..0791      1.000000
    x...0792  CNS..006     -1.000000   CNS..136      1.000000
    x...0792  UC..0792      1.000000
    x...0793  CNS..079     -1.000000   CNS..148      1.000000
    x...0793  UC..0793      1.000000
    x...0794  CNS..003     -1.000000   CNS..148      1.000000
    x...0794  UC..0794      1.000000
    x...0795  CNS..004     -1.000000   CNS..131      1.000000
    x...0795  UC..0795      1.000000
    x...0796  CNS..004      1.000000   CNS..131     -1.000000
    x...0796  UC..0796      1.000000
    x...0797  CNS..141     -1.000000   CNS..188      1.000000
    x...0797  UC..0797      1.000000
    x...0798  CNS..024     -1.000000   CNS..246      1.000000
    x...0798  UC..0798      1.000000
    x...0799  CNS..016     -1.000000   CNS..139      1.000000
    x...0799  UC..0799      1.000000
    x...0800  CNS..016      1.000000   CNS..139     -1.000000
    x...0800  UC..0800      1.000000
    x...0801  CNS..068     -1.000000   CNS..138      1.000000
    x...0801  UC..0801      1.000000
    x...0802  CNS..068      1.000000   CNS..138     -1.000000
    x...0802  UC..0802      1.000000
    x...0803  CNS..006      1.000000   CNS..132     -1.000000
    x...0803  UC..0803      1.000000
    x...0804  CNS..006     -1.000000   CNS..132      1.000000
    x...0804  UC..0804      1.000000
    x...0805  CNS..023     -1.000000   CNS..263      1.000000
    x...0805  UC..0805      1.000000
    x...0806  CNS..126     -1.000000   CNS..263      1.000000
    x...0806  UC..0806      1.000000
    x...0807  CNS..143     -1.000000   CNS..436      1.000000
    x...0807  UC..0807      1.000000
    x...0808  CNS..068      1.000000   CNS..143     -1.000000
    x...0808  UC..0808      1.000000
    x...0809  CNS..122     -1.000000   CNS..349      1.000000
    x...0809  UC..0809      1.000000
    x...0810  CNS..061     -1.000000   CNS..349      1.000000
    x...0810  UC..0810      1.000000
    x...0811  CNS..144     -1.000000   CNS..414      1.000000
    x...0811  UC..0811      1.000000
    x...0812  CNS..034      1.000000   CNS..144     -1.000000
    x...0812  UC..0812      1.000000
    x...0813  CNS..003      1.000000   CNS..008     -1.000000
    x...0813  UC..0813      1.000000
    x...0814  CNS..003     -1.000000   CNS..008      1.000000
    x...0814  UC..0814      1.000000
    x...0815  CNS..064     -1.000000   CNS..087      1.000000
    x...0815  UC..0815      1.000000
    x...0816  CNS..064      1.000000   CNS..087     -1.000000
    x...0816  UC..0816      1.000000
    x...0817  CNS..006      1.000000   CNS..145     -1.000000
    x...0817  UC..0817      1.000000
    x...0818  CNS..033      1.000000   CNS..145     -1.000000
    x...0818  UC..0818      1.000000
    x...0819  CNS..144     -1.000000   CNS..285      1.000000
    x...0819  UC..0819      1.000000
    x...0820  CNS..005     -1.000000   CNS..313      1.000000
    x...0820  UC..0820      1.000000
    x...0821  CNS..015      1.000000   CNS..146     -1.000000
    x...0821  UC..0821      1.000000
    x...0822  CNS..054      1.000000   CNS..146     -1.000000
    x...0822  UC..0822      1.000000
    x...0823  CNS..147     -1.000000   CNS..355      1.000000
    x...0823  UC..0823      1.000000
    x...0824  CNS..147     -1.000000   CNS..499      1.000000
    x...0824  UC..0824      1.000000
    x...0825  CNS..142     -1.000000   CNS..178      1.000000
    x...0825  UC..0825      1.000000
    x...0826  CNS..035     -1.000000   CNS..178      1.000000
    x...0826  UC..0826      1.000000
    x...0827  CNS..003      1.000000   CNS..148     -1.000000
    x...0827  UC..0827      1.000000
    x...0828  CNS..079      1.000000   CNS..148     -1.000000
    x...0828  UC..0828      1.000000
    x...0829  CNS..104     -1.000000   CNS..365      1.000000
    x...0829  UC..0829      1.000000
    x...0830  CNS..121     -1.000000   CNS..365      1.000000
    x...0830  UC..0830      1.000000
    x...0831  CNS..128      1.000000   CNS..149     -1.000000
    x...0831  UC..0831      1.000000
    x...0832  CNS..014      1.000000   CNS..149     -1.000000
    x...0832  UC..0832      1.000000
    x...0833  CNS..075      1.000000   CNS..150     -1.000000
    x...0833  UC..0833      1.000000
    x...0834  CNS..150     -1.000000   CNS..272      1.000000
    x...0834  UC..0834      1.000000
    x...0835  CNS..151     -1.000000   CNS..224      1.000000
    x...0835  UC..0835      1.000000
    x...0836  CNS..011      1.000000   CNS..151     -1.000000
    x...0836  UC..0836      1.000000
    x...0837  CNS..003      1.000000   CNS..079     -1.000000
    x...0837  UC..0837      1.000000
    x...0838  CNS..003     -1.000000   CNS..079      1.000000
    x...0838  UC..0838      1.000000
    x...0839  CNS..031      1.000000   CNS..107     -1.000000
    x...0839  UC..0839      1.000000
    x...0840  CNS..031     -1.000000   CNS..107      1.000000
    x...0840  UC..0840      1.000000
    x...0841  CNS..107     -1.000000   CNS..269      1.000000
    x...0841  UC..0841      1.000000
    x...0842  CNS..031     -1.000000   CNS..269      1.000000
    x...0842  UC..0842      1.000000
    x...0843  CNS..015     -1.000000   CNS..147      1.000000
    x...0843  UC..0843      1.000000
    x...0844  CNS..015      1.000000   CNS..147     -1.000000
    x...0844  UC..0844      1.000000
    x...0845  CNS..006      1.000000   CNS..033     -1.000000
    x...0845  UC..0845      1.000000
    x...0846  CNS..006     -1.000000   CNS..033      1.000000
    x...0846  UC..0846      1.000000
    x...0847  CNS..089     -1.000000   CNS..244      1.000000
    x...0847  UC..0847      1.000000
    x...0848  CNS..089      1.000000   CNS..244     -1.000000
    x...0848  UC..0848      1.000000
    x...0849  CNS..015      1.000000   CNS..054     -1.000000
    x...0849  UC..0849      1.000000
    x...0850  CNS..015     -1.000000   CNS..054      1.000000
    x...0850  UC..0850      1.000000
    x...0851  CNS..152     -1.000000   CNS..356      1.000000
    x...0851  UC..0851      1.000000
    x...0852  CNS..018      1.000000   CNS..152     -1.000000
    x...0852  UC..0852      1.000000
    x...0853  CNS..133     -1.000000   CNS..140      1.000000
    x...0853  UC..0853      1.000000
    x...0854  CNS..133      1.000000   CNS..140     -1.000000
    x...0854  UC..0854      1.000000
    x...0855  CNS..153     -1.000000   CNS..331      1.000000
    x...0855  UC..0855      1.000000
    x...0856  CNS..011      1.000000   CNS..153     -1.000000
    x...0856  UC..0856      1.000000
    x...0857  CNS..127     -1.000000   CNS..149      1.000000
    x...0857  UC..0857      1.000000
    x...0858  CNS..127      1.000000   CNS..149     -1.000000
    x...0858  UC..0858      1.000000
    x...0859  CNS..019      1.000000   CNS..152     -1.000000
    x...0859  UC..0859      1.000000
    x...0860  CNS..019     -1.000000   CNS..152      1.000000
    x...0860  UC..0860      1.000000
    x...0861  CNS..011      1.000000   CNS..154     -1.000000
    x...0861  UC..0861      1.000000
    x...0862  CNS..109      1.000000   CNS..154     -1.000000
    x...0862  UC..0862      1.000000
    x...0863  CNS..107      1.000000   CNS..155     -1.000000
    x...0863  UC..0863      1.000000
    x...0864  CNS..032      1.000000   CNS..155     -1.000000
    x...0864  UC..0864      1.000000
    x...0865  CNS..075     -1.000000   CNS..364      1.000000
    x...0865  UC..0865      1.000000
    x...0866  CNS..008     -1.000000   CNS..364      1.000000
    x...0866  UC..0866      1.000000
    x...0867  CNS..004      1.000000   CNS..100     -1.000000
    x...0867  UC..0867      1.000000
    x...0868  CNS..004     -1.000000   CNS..100      1.000000
    x...0868  UC..0868      1.000000
    x...0869  CNS..059     -1.000000   CNS..068      1.000000
    x...0869  UC..0869      1.000000
    x...0870  CNS..059      1.000000   CNS..068     -1.000000
    x...0870  UC..0870      1.000000
    x...0871  CNS..031     -1.000000   CNS..155      1.000000
    x...0871  UC..0871      1.000000
    x...0872  CNS..031      1.000000   CNS..155     -1.000000
    x...0872  UC..0872      1.000000
    x...0873  CNS..052      1.000000   CNS..156     -1.000000
    x...0873  UC..0873      1.000000
    x...0874  CNS..006      1.000000   CNS..156     -1.000000
    x...0874  UC..0874      1.000000
    x...0875  CNS..090      1.000000   CNS..157     -1.000000
    x...0875  UC..0875      1.000000
    x...0876  CNS..157     -1.000000   CNS..467      1.000000
    x...0876  UC..0876      1.000000
    x...0877  CNS..017     -1.000000   CNS..167      1.000000
    x...0877  UC..0877      1.000000
    x...0878  CNS..155     -1.000000   CNS..167      1.000000
    x...0878  UC..0878      1.000000
    x...0879  CNS..001      1.000000   CNS..158     -1.000000
    x...0879  UC..0879      1.000000
    x...0880  CNS..158     -1.000000   CNS..218      1.000000
    x...0880  UC..0880      1.000000
    x...0881  CNS..039      1.000000   CNS..159     -1.000000
    x...0881  UC..0881      1.000000
    x...0882  CNS..120      1.000000   CNS..159     -1.000000
    x...0882  UC..0882      1.000000
    x...0883  CNS..100      1.000000   CNS..160     -1.000000
    x...0883  UC..0883      1.000000
    x...0884  CNS..058      1.000000   CNS..160     -1.000000
    x...0884  UC..0884      1.000000
    x...0885  CNS..006      1.000000   CNS..011     -1.000000
    x...0885  UC..0885      1.000000
    x...0886  CNS..006     -1.000000   CNS..011      1.000000
    x...0886  UC..0886      1.000000
    x...0887  CNS..011     -1.000000   CNS..140      1.000000
    x...0887  UC..0887      1.000000
    x...0888  CNS..011      1.000000   CNS..140     -1.000000
    x...0888  UC..0888      1.000000
    x...0889  CNS..012      1.000000   CNS..161     -1.000000
    x...0889  UC..0889      1.000000
    x...0890  CNS..020      1.000000   CNS..161     -1.000000
    x...0890  UC..0890      1.000000
    x...0891  CNS..162     -1.000000   CNS..489      1.000000
    x...0891  UC..0891      1.000000
    x...0892  CNS..004      1.000000   CNS..162     -1.000000
    x...0892  UC..0892      1.000000
    x...0893  CNS..109      1.000000   CNS..163     -1.000000
    x...0893  UC..0893      1.000000
    x...0894  CNS..163     -1.000000   CNS..219      1.000000
    x...0894  UC..0894      1.000000
    x...0895  CNS..065     -1.000000   CNS..143      1.000000
    x...0895  UC..0895      1.000000
    x...0896  CNS..065      1.000000   CNS..143     -1.000000
    x...0896  UC..0896      1.000000
    x...0897  CNS..023      1.000000   CNS..164     -1.000000
    x...0897  UC..0897      1.000000
    x...0898  CNS..164     -1.000000   CNS..395      1.000000
    x...0898  UC..0898      1.000000
    x...0899  CNS..011      1.000000   CNS..157     -1.000000
    x...0899  UC..0899      1.000000
    x...0900  CNS..011     -1.000000   CNS..157      1.000000
    x...0900  UC..0900      1.000000
    x...0901  CNS..095      1.000000   CNS..165     -1.000000
    x...0901  UC..0901      1.000000
    x...0902  CNS..073      1.000000   CNS..165     -1.000000
    x...0902  UC..0902      1.000000
    x...0903  CNS..006      1.000000   CNS..166     -1.000000
    x...0903  UC..0903      1.000000
    x...0904  CNS..036      1.000000   CNS..166     -1.000000
    x...0904  UC..0904      1.000000
    x...0905  CNS..005     -1.000000   CNS..159      1.000000
    x...0905  UC..0905      1.000000
    x...0906  CNS..005      1.000000   CNS..159     -1.000000
    x...0906  UC..0906      1.000000
    x...0907  CNS..151     -1.000000   CNS..445      1.000000
    x...0907  UC..0907      1.000000
    x...0908  CNS..008     -1.000000   CNS..445      1.000000
    x...0908  UC..0908      1.000000
    x...0909  CNS..008      1.000000   CNS..075     -1.000000
    x...0909  UC..0909      1.000000
    x...0910  CNS..008     -1.000000   CNS..075      1.000000
    x...0910  UC..0910      1.000000
    x...0911  CNS..155      1.000000   CNS..167     -1.000000
    x...0911  UC..0911      1.000000
    x...0912  CNS..017      1.000000   CNS..167     -1.000000
    x...0912  UC..0912      1.000000
    x...0913  CNS..017      1.000000   CNS..148     -1.000000
    x...0913  UC..0913      1.000000
    x...0914  CNS..017     -1.000000   CNS..148      1.000000
    x...0914  UC..0914      1.000000
    x...0915  CNS..015      1.000000   CNS..168     -1.000000
    x...0915  UC..0915      1.000000
    x...0916  CNS..168     -1.000000   CNS..326      1.000000
    x...0916  UC..0916      1.000000
    x...0917  CNS..050     -1.000000   CNS..129      1.000000
    x...0917  UC..0917      1.000000
    x...0918  CNS..050      1.000000   CNS..129     -1.000000
    x...0918  UC..0918      1.000000
    x...0919  CNS..015     -1.000000   CNS..266      1.000000
    x...0919  UC..0919      1.000000
    x...0920  CNS..004     -1.000000   CNS..309      1.000000
    x...0920  UC..0920      1.000000
    x...0921  CNS..037      1.000000   CNS..169     -1.000000
    x...0921  UC..0921      1.000000
    x...0922  CNS..033      1.000000   CNS..169     -1.000000
    x...0922  UC..0922      1.000000
    x...0923  CNS..121     -1.000000   CNS..323      1.000000
    x...0923  UC..0923      1.000000
    x...0924  CNS..140     -1.000000   CNS..323      1.000000
    x...0924  UC..0924      1.000000
    x...0925  CNS..085      1.000000   CNS..170     -1.000000
    x...0925  UC..0925      1.000000
    x...0926  CNS..018      1.000000   CNS..170     -1.000000
    x...0926  UC..0926      1.000000
    x...0927  CNS..013     -1.000000   CNS..312      1.000000
    x...0927  UC..0927      1.000000
    x...0928  CNS..004     -1.000000   CNS..312      1.000000
    x...0928  UC..0928      1.000000
    x...0929  CNS..145     -1.000000   CNS..441      1.000000
    x...0929  UC..0929      1.000000
    x...0930  CNS..070     -1.000000   CNS..441      1.000000
    x...0930  UC..0930      1.000000
    x...0931  CNS..058      1.000000   CNS..100     -1.000000
    x...0931  UC..0931      1.000000
    x...0932  CNS..058     -1.000000   CNS..100      1.000000
    x...0932  UC..0932      1.000000
    x...0933  CNS..006      1.000000   CNS..052     -1.000000
    x...0933  UC..0933      1.000000
    x...0934  CNS..006     -1.000000   CNS..052      1.000000
    x...0934  UC..0934      1.000000
    x...0935  CNS..146      1.000000   CNS..266     -1.000000
    x...0935  UC..0935      1.000000
    x...0936  CNS..146     -1.000000   CNS..266      1.000000
    x...0936  UC..0936      1.000000
    x...0937  CNS..112     -1.000000   CNS..162      1.000000
    x...0937  UC..0937      1.000000
    x...0938  CNS..112      1.000000   CNS..162     -1.000000
    x...0938  UC..0938      1.000000
    x...0939  CNS..073      1.000000   CNS..095     -1.000000
    x...0939  UC..0939      1.000000
    x...0940  CNS..073     -1.000000   CNS..095      1.000000
    x...0940  UC..0940      1.000000
    x...0941  CNS..171     -1.000000   CNS..417      1.000000
    x...0941  UC..0941      1.000000
    x...0942  CNS..008      1.000000   CNS..171     -1.000000
    x...0942  UC..0942      1.000000
    x...0943  CNS..023      1.000000   CNS..044     -1.000000
    x...0943  UC..0943      1.000000
    x...0944  CNS..023     -1.000000   CNS..044      1.000000
    x...0944  UC..0944      1.000000
    x...0945  CNS..011      1.000000   CNS..109     -1.000000
    x...0945  UC..0945      1.000000
    x...0946  CNS..011     -1.000000   CNS..109      1.000000
    x...0946  UC..0946      1.000000
    x...0947  CNS..004     -1.000000   CNS..057      1.000000
    x...0947  UC..0947      1.000000
    x...0948  CNS..004      1.000000   CNS..057     -1.000000
    x...0948  UC..0948      1.000000
    x...0949  CNS..015     -1.000000   CNS..396      1.000000
    x...0949  UC..0949      1.000000
    x...0950  CNS..004     -1.000000   CNS..396      1.000000
    x...0950  UC..0950      1.000000
    x...0951  CNS..008      1.000000   CNS..172     -1.000000
    x...0951  UC..0951      1.000000
    x...0952  CNS..047      1.000000   CNS..172     -1.000000
    x...0952  UC..0952      1.000000
    x...0953  CNS..081     -1.000000   CNS..130      1.000000
    x...0953  UC..0953      1.000000
    x...0954  CNS..081      1.000000   CNS..130     -1.000000
    x...0954  UC..0954      1.000000
    x...0955  CNS..041     -1.000000   CNS..151      1.000000
    x...0955  UC..0955      1.000000
    x...0956  CNS..041      1.000000   CNS..151     -1.000000
    x...0956  UC..0956      1.000000
    x...0957  CNS..001     -1.000000   CNS..020      1.000000
    x...0957  UC..0957      1.000000
    x...0958  CNS..001      1.000000   CNS..020     -1.000000
    x...0958  UC..0958      1.000000
    x...0959  CNS..033      1.000000   CNS..037     -1.000000
    x...0959  UC..0959      1.000000
    x...0960  CNS..033     -1.000000   CNS..037      1.000000
    x...0960  UC..0960      1.000000
    x...0961  CNS..018      1.000000   CNS..125     -1.000000
    x...0961  UC..0961      1.000000
    x...0962  CNS..018     -1.000000   CNS..125      1.000000
    x...0962  UC..0962      1.000000
    x...0963  CNS..052     -1.000000   CNS..189      1.000000
    x...0963  UC..0963      1.000000
    x...0964  CNS..006     -1.000000   CNS..189      1.000000
    x...0964  UC..0964      1.000000
    x...0965  CNS..097      1.000000   CNS..331     -1.000000
    x...0965  UC..0965      1.000000
    x...0966  CNS..097     -1.000000   CNS..331      1.000000
    x...0966  UC..0966      1.000000
    x...0967  CNS..008      1.000000   CNS..173     -1.000000
    x...0967  UC..0967      1.000000
    x...0968  CNS..010      1.000000   CNS..173     -1.000000
    x...0968  UC..0968      1.000000
    x...0969  CNS..050      1.000000   CNS..174     -1.000000
    x...0969  UC..0969      1.000000
    x...0970  CNS..005      1.000000   CNS..174     -1.000000
    x...0970  UC..0970      1.000000
    x...0971  CNS..175     -1.000000   CNS..481      1.000000
    x...0971  UC..0971      1.000000
    x...0972  CNS..117      1.000000   CNS..175     -1.000000
    x...0972  UC..0972      1.000000
    x...0973  CNS..001     -1.000000   CNS..060      1.000000
    x...0973  UC..0973      1.000000
    x...0974  CNS..001      1.000000   CNS..060     -1.000000
    x...0974  UC..0974      1.000000
    x...0975  CNS..121     -1.000000   CNS..376      1.000000
    x...0975  UC..0975      1.000000
    x...0976  CNS..011     -1.000000   CNS..198      1.000000
    x...0976  UC..0976      1.000000
    x...0977  CNS..164     -1.000000   CNS..450      1.000000
    x...0977  UC..0977      1.000000
    x...0978  CNS..002     -1.000000   CNS..260      1.000000
    x...0978  UC..0978      1.000000
    x...0979  CNS..099     -1.000000   CNS..278      1.000000
    x...0979  UC..0979      1.000000
    x...0980  CNS..161     -1.000000   CNS..196      1.000000
    x...0980  UC..0980      1.000000
    x...0981  CNS..011     -1.000000   CNS..170      1.000000
    x...0981  UC..0981      1.000000
    x...0982  CNS..011      1.000000   CNS..170     -1.000000
    x...0982  UC..0982      1.000000
    x...0983  CNS..005     -1.000000   CNS..050      1.000000
    x...0983  UC..0983      1.000000
    x...0984  CNS..005      1.000000   CNS..050     -1.000000
    x...0984  UC..0984      1.000000
    x...0985  CNS..041     -1.000000   CNS..163      1.000000
    x...0985  UC..0985      1.000000
    x...0986  CNS..041      1.000000   CNS..163     -1.000000
    x...0986  UC..0986      1.000000
    x...0987  CNS..075     -1.000000   CNS..172      1.000000
    x...0987  UC..0987      1.000000
    x...0988  CNS..075      1.000000   CNS..172     -1.000000
    x...0988  UC..0988      1.000000
    x...0989  CNS..129      1.000000   CNS..174     -1.000000
    x...0989  UC..0989      1.000000
    x...0990  CNS..129     -1.000000   CNS..174      1.000000
    x...0990  UC..0990      1.000000
    x...0991  CNS..176     -1.000000   CNS..185      1.000000
    x...0991  UC..0991      1.000000
    x...0992  CNS..176     -1.000000   CNS..177      1.000000
    x...0992  UC..0992      1.000000
    x...0993  CNS..176      1.000000   CNS..177     -1.000000
    x...0993  UC..0993      1.000000
    x...0994  CNS..177     -1.000000   CNS..294      1.000000
    x...0994  UC..0994      1.000000
    x...0995  CNS..035      1.000000   CNS..178     -1.000000
    x...0995  UC..0995      1.000000
    x...0996  CNS..142      1.000000   CNS..178     -1.000000
    x...0996  UC..0996      1.000000
    x...0997  CNS..035     -1.000000   CNS..142      1.000000
    x...0997  UC..0997      1.000000
    x...0998  CNS..035      1.000000   CNS..142     -1.000000
    x...0998  UC..0998      1.000000
    x...0999  CNS..029     -1.000000   CNS..161      1.000000
    x...0999  UC..0999      1.000000
    x...1000  CNS..029      1.000000   CNS..161     -1.000000
    x...1000  UC..1000      1.000000
    x...1001  CNS..117     -1.000000   CNS..493      1.000000
    x...1001  UC..1001      1.000000
    x...1002  CNS..039     -1.000000   CNS..258      1.000000
    x...1002  UC..1002      1.000000
    x...1003  CNS..053     -1.000000   CNS..171      1.000000
    x...1003  UC..1003      1.000000
    x...1004  CNS..053      1.000000   CNS..171     -1.000000
    x...1004  UC..1004      1.000000
    x...1005  CNS..032     -1.000000   CNS..167      1.000000
    x...1005  UC..1005      1.000000
    x...1006  CNS..032      1.000000   CNS..167     -1.000000
    x...1006  UC..1006      1.000000
    x...1007  CNS..062     -1.000000   CNS..208      1.000000
    x...1007  UC..1007      1.000000
    x...1008  CNS..160     -1.000000   CNS..223      1.000000
    x...1008  UC..1008      1.000000
    x...1009  CNS..026      1.000000   CNS..149     -1.000000
    x...1009  UC..1009      1.000000
    x...1010  CNS..026     -1.000000   CNS..149      1.000000
    x...1010  UC..1010      1.000000
    x...1011  CNS..018      1.000000   CNS..179     -1.000000
    x...1011  UC..1011      1.000000
    x...1012  CNS..179     -1.000000   CNS..204      1.000000
    x...1012  UC..1012      1.000000
    x...1013  CNS..008     -1.000000   CNS..010      1.000000
    x...1013  UC..1013      1.000000
    x...1014  CNS..008      1.000000   CNS..010     -1.000000
    x...1014  UC..1014      1.000000
    x...1015  CNS..003      1.000000   CNS..180     -1.000000
    x...1015  UC..1015      1.000000
    x...1016  CNS..116      1.000000   CNS..180     -1.000000
    x...1016  UC..1016      1.000000
    x...1017  CNS..014      1.000000   CNS..181     -1.000000
    x...1017  UC..1017      1.000000
    x...1018  CNS..003      1.000000   CNS..181     -1.000000
    x...1018  UC..1018      1.000000
    x...1019  CNS..003     -1.000000   CNS..116      1.000000
    x...1019  UC..1019      1.000000
    x...1020  CNS..003      1.000000   CNS..116     -1.000000
    x...1020  UC..1020      1.000000
    x...1021  CNS..018      1.000000   CNS..019     -1.000000
    x...1021  UC..1021      1.000000
    x...1022  CNS..018     -1.000000   CNS..019      1.000000
    x...1022  UC..1022      1.000000
    x...1023  CNS..003     -1.000000   CNS..014      1.000000
    x...1023  UC..1023      1.000000
    x...1024  CNS..003      1.000000   CNS..014     -1.000000
    x...1024  UC..1024      1.000000
    x...1025  CNS..042     -1.000000   CNS..176      1.000000
    x...1025  UC..1025      1.000000
    x...1026  CNS..042      1.000000   CNS..176     -1.000000
    x...1026  UC..1026      1.000000
    x...1027  CNS..170     -1.000000   CNS..394      1.000000
    x...1027  UC..1027      1.000000
    x...1028  CNS..011     -1.000000   CNS..394      1.000000
    x...1028  UC..1028      1.000000
    x...1029  CNS..013      1.000000   CNS..182     -1.000000
    x...1029  UC..1029      1.000000
    x...1030  CNS..002      1.000000   CNS..182     -1.000000
    x...1030  UC..1030      1.000000
    x...1031  CNS..004     -1.000000   CNS..180      1.000000
    x...1031  UC..1031      1.000000
    x...1032  CNS..004      1.000000   CNS..180     -1.000000
    x...1032  UC..1032      1.000000
    x...1033  CNS..003     -1.000000   CNS..268      1.000000
    x...1033  UC..1033      1.000000
    x...1034  CNS..014     -1.000000   CNS..268      1.000000
    x...1034  UC..1034      1.000000
    x...1035  CNS..004     -1.000000   CNS..247      1.000000
    x...1035  UC..1035      1.000000
    x...1036  CNS..169     -1.000000   CNS..247      1.000000
    x...1036  UC..1036      1.000000
    x...1037  CNS..073     -1.000000   CNS..310      1.000000
    x...1037  UC..1037      1.000000
    x...1038  CNS..095     -1.000000   CNS..310      1.000000
    x...1038  UC..1038      1.000000
    x...1039  CNS..022     -1.000000   CNS..176      1.000000
    x...1039  UC..1039      1.000000
    x...1040  CNS..022      1.000000   CNS..176     -1.000000
    x...1040  UC..1040      1.000000
    x...1041  CNS..175     -1.000000   CNS..237      1.000000
    x...1041  UC..1041      1.000000
    x...1042  CNS..027     -1.000000   CNS..237      1.000000
    x...1042  UC..1042      1.000000
    x...1043  CNS..093      1.000000   CNS..183     -1.000000
    x...1043  UC..1043      1.000000
    x...1044  CNS..183     -1.000000   CNS..498      1.000000
    x...1044  UC..1044      1.000000
    x...1045  CNS..018      1.000000   CNS..184     -1.000000
    x...1045  UC..1045      1.000000
    x...1046  CNS..184     -1.000000   CNS..496      1.000000
    x...1046  UC..1046      1.000000
    x...1047  CNS..006      1.000000   CNS..036     -1.000000
    x...1047  UC..1047      1.000000
    x...1048  CNS..006     -1.000000   CNS..036      1.000000
    x...1048  UC..1048      1.000000
    x...1049  CNS..182     -1.000000   CNS..202      1.000000
    x...1049  UC..1049      1.000000
    x...1050  CNS..028     -1.000000   CNS..392      1.000000
    x...1050  UC..1050      1.000000
    x...1051  CNS..017      1.000000   CNS..179     -1.000000
    x...1051  UC..1051      1.000000
    x...1052  CNS..017     -1.000000   CNS..179      1.000000
    x...1052  UC..1052      1.000000
    x...1053  CNS..034      1.000000   CNS..084     -1.000000
    x...1053  UC..1053      1.000000
    x...1054  CNS..034     -1.000000   CNS..084      1.000000
    x...1054  UC..1054      1.000000
    x...1055  CNS..008     -1.000000   CNS..018      1.000000
    x...1055  UC..1055      1.000000
    x...1056  CNS..008      1.000000   CNS..018     -1.000000
    x...1056  UC..1056      1.000000
    x...1057  CNS..004     -1.000000   CNS..093      1.000000
    x...1057  UC..1057      1.000000
    x...1058  CNS..004      1.000000   CNS..093     -1.000000
    x...1058  UC..1058      1.000000
    x...1059  CNS..010      1.000000   CNS..171     -1.000000
    x...1059  UC..1059      1.000000
    x...1060  CNS..010     -1.000000   CNS..171      1.000000
    x...1060  UC..1060      1.000000
    x...1061  CNS..011     -1.000000   CNS..485      1.000000
    x...1061  UC..1061      1.000000
    x...1062  CNS..109     -1.000000   CNS..485      1.000000
    x...1062  UC..1062      1.000000
    x...1063  CNS..010     -1.000000   CNS..163      1.000000
    x...1063  UC..1063      1.000000
    x...1064  CNS..010      1.000000   CNS..163     -1.000000
    x...1064  UC..1064      1.000000
    x...1065  CNS..044     -1.000000   CNS..126      1.000000
    x...1065  UC..1065      1.000000
    x...1066  CNS..044      1.000000   CNS..126     -1.000000
    x...1066  UC..1066      1.000000
    x...1067  CNS..001      1.000000   CNS..185     -1.000000
    x...1067  UC..1067      1.000000
    x...1068  CNS..176      1.000000   CNS..185     -1.000000
    x...1068  UC..1068      1.000000
    x...1069  CNS..107      1.000000   CNS..167     -1.000000
    x...1069  UC..1069      1.000000
    x...1070  CNS..107     -1.000000   CNS..167      1.000000
    x...1070  UC..1070      1.000000
    x...1071  CNS..003     -1.000000   CNS..387      1.000000
    x...1071  UC..1071      1.000000
    x...1072  CNS..178     -1.000000   CNS..387      1.000000
    x...1072  UC..1072      1.000000
    x...1073  CNS..078      1.000000   CNS..172     -1.000000
    x...1073  UC..1073      1.000000
    x...1074  CNS..078     -1.000000   CNS..172      1.000000
    x...1074  UC..1074      1.000000
    x...1075  CNS..112     -1.000000   CNS..182      1.000000
    x...1075  UC..1075      1.000000
    x...1076  CNS..112      1.000000   CNS..182     -1.000000
    x...1076  UC..1076      1.000000
    x...1077  CNS..028      1.000000   CNS..186     -1.000000
    x...1077  UC..1077      1.000000
    x...1078  CNS..186     -1.000000   CNS..449      1.000000
    x...1078  UC..1078      1.000000
    x...1079  CNS..042      1.000000   CNS..185     -1.000000
    x...1079  UC..1079      1.000000
    x...1080  CNS..042     -1.000000   CNS..185      1.000000
    x...1080  UC..1080      1.000000
    x...1081  CNS..176     -1.000000   CNS..442      1.000000
    x...1081  UC..1081      1.000000
    x...1082  CNS..022     -1.000000   CNS..345      1.000000
    x...1082  UC..1082      1.000000
    x...1083  CNS..001     -1.000000   CNS..275      1.000000
    x...1083  UC..1083      1.000000
    x...1084  CNS..020     -1.000000   CNS..275      1.000000
    x...1084  UC..1084      1.000000
    x...1085  CNS..027      1.000000   CNS..159     -1.000000
    x...1085  UC..1085      1.000000
    x...1086  CNS..027     -1.000000   CNS..159      1.000000
    x...1086  UC..1086      1.000000
    x...1087  CNS..018      1.000000   CNS..090     -1.000000
    x...1087  UC..1087      1.000000
    x...1088  CNS..018     -1.000000   CNS..090      1.000000
    x...1088  UC..1088      1.000000
    x...1089  CNS..173     -1.000000   CNS..255      1.000000
    x...1089  UC..1089      1.000000
    x...1090  CNS..171     -1.000000   CNS..255      1.000000
    x...1090  UC..1090      1.000000
    x...1091  CNS..030     -1.000000   CNS..230      1.000000
    x...1091  UC..1091      1.000000
    x...1092  CNS..185     -1.000000   CNS..230      1.000000
    x...1092  UC..1092      1.000000
    x...1093  CNS..002      1.000000   CNS..028     -1.000000
    x...1093  UC..1093      1.000000
    x...1094  CNS..002     -1.000000   CNS..028      1.000000
    x...1094  UC..1094      1.000000
    x...1095  CNS..182      1.000000   CNS..186     -1.000000
    x...1095  UC..1095      1.000000
    x...1096  CNS..182     -1.000000   CNS..186      1.000000
    x...1096  UC..1096      1.000000
    x...1097  CNS..002      1.000000   CNS..187     -1.000000
    x...1097  UC..1097      1.000000
    x...1098  CNS..004      1.000000   CNS..187     -1.000000
    x...1098  UC..1098      1.000000
    x...1099  CNS..188     -1.000000   CNS..298      1.000000
    x...1099  UC..1099      1.000000
    x...1100  CNS..141      1.000000   CNS..188     -1.000000
    x...1100  UC..1100      1.000000
    x...1101  CNS..006      1.000000   CNS..189     -1.000000
    x...1101  UC..1101      1.000000
    x...1102  CNS..052      1.000000   CNS..189     -1.000000
    x...1102  UC..1102      1.000000
    x...1103  CNS..156      1.000000   CNS..189     -1.000000
    x...1103  UC..1103      1.000000
    x...1104  CNS..156     -1.000000   CNS..189      1.000000
    x...1104  UC..1104      1.000000
    x...1105  CNS..190     -1.000000   CNS..297      1.000000
    x...1105  UC..1105      1.000000
    x...1106  CNS..190     -1.000000   CNS..306      1.000000
    x...1106  UC..1106      1.000000
    x...1107  CNS..058     -1.000000   CNS..190      1.000000
    x...1107  UC..1107      1.000000
    x...1108  CNS..058      1.000000   CNS..190     -1.000000
    x...1108  UC..1108      1.000000
    x...1109  CNS..024     -1.000000   CNS..141      1.000000
    x...1109  UC..1109      1.000000
    x...1110  CNS..024      1.000000   CNS..141     -1.000000
    x...1110  UC..1110      1.000000
    x...1111  CNS..037      1.000000   CNS..166     -1.000000
    x...1111  UC..1111      1.000000
    x...1112  CNS..037     -1.000000   CNS..166      1.000000
    x...1112  UC..1112      1.000000
    x...1113  CNS..139      1.000000   CNS..191     -1.000000
    x...1113  UC..1113      1.000000
    x...1114  CNS..013      1.000000   CNS..191     -1.000000
    x...1114  UC..1114      1.000000
    x...1115  CNS..013      1.000000   CNS..139     -1.000000
    x...1115  UC..1115      1.000000
    x...1116  CNS..013     -1.000000   CNS..139      1.000000
    x...1116  UC..1116      1.000000
    x...1117  CNS..044      1.000000   CNS..187     -1.000000
    x...1117  UC..1117      1.000000
    x...1118  CNS..044     -1.000000   CNS..187      1.000000
    x...1118  UC..1118      1.000000
    x...1119  CNS..136      1.000000   CNS..192     -1.000000
    x...1119  UC..1119      1.000000
    x...1120  CNS..087      1.000000   CNS..192     -1.000000
    x...1120  UC..1120      1.000000
    x...1121  CNS..077      1.000000   CNS..193     -1.000000
    x...1121  UC..1121      1.000000
    x...1122  CNS..041      1.000000   CNS..193     -1.000000
    x...1122  UC..1122      1.000000
    x...1123  CNS..194     -1.000000   CNS..222      1.000000
    x...1123  UC..1123      1.000000
    x...1124  CNS..194     -1.000000   CNS..451      1.000000
    x...1124  UC..1124      1.000000
    x...1125  CNS..090     -1.000000   CNS..184      1.000000
    x...1125  UC..1125      1.000000
    x...1126  CNS..090      1.000000   CNS..184     -1.000000
    x...1126  UC..1126      1.000000
    x...1127  CNS..001     -1.000000   CNS..188      1.000000
    x...1127  UC..1127      1.000000
    x...1128  CNS..001      1.000000   CNS..188     -1.000000
    x...1128  UC..1128      1.000000
    x...1129  CNS..003      1.000000   CNS..195     -1.000000
    x...1129  UC..1129      1.000000
    x...1130  CNS..002      1.000000   CNS..195     -1.000000
    x...1130  UC..1130      1.000000
    x...1131  CNS..191     -1.000000   CNS..244      1.000000
    x...1131  UC..1131      1.000000
    x...1132  CNS..016     -1.000000   CNS..244      1.000000
    x...1132  UC..1132      1.000000
    x...1133  CNS..100     -1.000000   CNS..194      1.000000
    x...1133  UC..1133      1.000000
    x...1134  CNS..100      1.000000   CNS..194     -1.000000
    x...1134  UC..1134      1.000000
    x...1135  CNS..022      1.000000   CNS..185     -1.000000
    x...1135  UC..1135      1.000000
    x...1136  CNS..022     -1.000000   CNS..185      1.000000
    x...1136  UC..1136      1.000000
    x...1137  CNS..161      1.000000   CNS..196     -1.000000
    x...1137  UC..1137      1.000000
    x...1138  CNS..196     -1.000000   CNS..206      1.000000
    x...1138  UC..1138      1.000000
    x...1139  CNS..041      1.000000   CNS..077     -1.000000
    x...1139  UC..1139      1.000000
    x...1140  CNS..041     -1.000000   CNS..077      1.000000
    x...1140  UC..1140      1.000000
    x...1141  CNS..197     -1.000000   CNS..260      1.000000
    x...1141  UC..1141      1.000000
    x...1142  CNS..197     -1.000000   CNS..409      1.000000
    x...1142  UC..1142      1.000000
    x...1143  CNS..044      1.000000   CNS..197     -1.000000
    x...1143  UC..1143      1.000000
    x...1144  CNS..044     -1.000000   CNS..197      1.000000
    x...1144  UC..1144      1.000000
    x...1145  CNS..010     -1.000000   CNS..193      1.000000
    x...1145  UC..1145      1.000000
    x...1146  CNS..010      1.000000   CNS..193     -1.000000
    x...1146  UC..1146      1.000000
    x...1147  CNS..078      1.000000   CNS..183     -1.000000
    x...1147  UC..1147      1.000000
    x...1148  CNS..078     -1.000000   CNS..183      1.000000
    x...1148  UC..1148      1.000000
    x...1149  CNS..136     -1.000000   CNS..389      1.000000
    x...1149  UC..1149      1.000000
    x...1150  CNS..087     -1.000000   CNS..389      1.000000
    x...1150  UC..1150      1.000000
    x...1151  CNS..099     -1.000000   CNS..161      1.000000
    x...1151  UC..1151      1.000000
    x...1152  CNS..099      1.000000   CNS..161     -1.000000
    x...1152  UC..1152      1.000000
    x...1153  CNS..189     -1.000000   CNS..238      1.000000
    x...1153  UC..1153      1.000000
    x...1154  CNS..189      1.000000   CNS..238     -1.000000
    x...1154  UC..1154      1.000000
    x...1155  CNS..100      1.000000   CNS..190     -1.000000
    x...1155  UC..1155      1.000000
    x...1156  CNS..100     -1.000000   CNS..190      1.000000
    x...1156  UC..1156      1.000000
    x...1157  CNS..058     -1.000000   CNS..113      1.000000
    x...1157  UC..1157      1.000000
    x...1158  CNS..058      1.000000   CNS..113     -1.000000
    x...1158  UC..1158      1.000000
    x...1159  CNS..112      1.000000   CNS..187     -1.000000
    x...1159  UC..1159      1.000000
    x...1160  CNS..112     -1.000000   CNS..187      1.000000
    x...1160  UC..1160      1.000000
    x...1161  CNS..002     -1.000000   CNS..003      1.000000
    x...1161  UC..1161      1.000000
    x...1162  CNS..002      1.000000   CNS..003     -1.000000
    x...1162  UC..1162      1.000000
    x...1163  CNS..196     -1.000000   CNS..479      1.000000
    x...1163  UC..1163      1.000000
    x...1164  CNS..012     -1.000000   CNS..214      1.000000
    x...1164  UC..1164      1.000000
    x...1165  CNS..002     -1.000000   CNS..164      1.000000
    x...1165  UC..1165      1.000000
    x...1166  CNS..002      1.000000   CNS..164     -1.000000
    x...1166  UC..1166      1.000000
    x...1167  CNS..011      1.000000   CNS..198     -1.000000
    x...1167  UC..1167      1.000000
    x...1168  CNS..198     -1.000000   CNS..376      1.000000
    x...1168  UC..1168      1.000000
    x...1169  CNS..004     -1.000000   CNS..195      1.000000
    x...1169  UC..1169      1.000000
    x...1170  CNS..004      1.000000   CNS..195     -1.000000
    x...1170  UC..1170      1.000000
    x...1171  CNS..035     -1.000000   CNS..198      1.000000
    x...1171  UC..1171      1.000000
    x...1172  CNS..035      1.000000   CNS..198     -1.000000
    x...1172  UC..1172      1.000000
    x...1173  CNS..011     -1.000000   CNS..121      1.000000
    x...1173  UC..1173      1.000000
    x...1174  CNS..011      1.000000   CNS..121     -1.000000
    x...1174  UC..1174      1.000000
    x...1175  CNS..064      1.000000   CNS..192     -1.000000
    x...1175  UC..1175      1.000000
    x...1176  CNS..064     -1.000000   CNS..192      1.000000
    x...1176  UC..1176      1.000000
    x...1177  CNS..199     -1.000000   CNS..341      1.000000
    x...1177  UC..1177      1.000000
    x...1178  CNS..199     -1.000000   CNS..232      1.000000
    x...1178  UC..1178      1.000000
    x...1179  CNS..193     -1.000000   CNS..199      1.000000
    x...1179  UC..1179      1.000000
    x...1180  CNS..193      1.000000   CNS..199     -1.000000
    x...1180  UC..1180      1.000000
    x...1181  CNS..119      1.000000   CNS..200     -1.000000
    x...1181  UC..1181      1.000000
    x...1182  CNS..200     -1.000000   CNS..205      1.000000
    x...1182  UC..1182      1.000000
    x...1183  CNS..066      1.000000   CNS..119     -1.000000
    x...1183  UC..1183      1.000000
    x...1184  CNS..066     -1.000000   CNS..119      1.000000
    x...1184  UC..1184      1.000000
    x...1185  CNS..010      1.000000   CNS..077     -1.000000
    x...1185  UC..1185      1.000000
    x...1186  CNS..010     -1.000000   CNS..077      1.000000
    x...1186  UC..1186      1.000000
    x...1187  CNS..124     -1.000000   CNS..205      1.000000
    x...1187  UC..1187      1.000000
    x...1188  CNS..124      1.000000   CNS..205     -1.000000
    x...1188  UC..1188      1.000000
    x...1189  CNS..057      1.000000   CNS..201     -1.000000
    x...1189  UC..1189      1.000000
    x...1190  CNS..086      1.000000   CNS..201     -1.000000
    x...1190  UC..1190      1.000000
    x...1191  CNS..015      1.000000   CNS..201     -1.000000
    x...1191  UC..1191      1.000000
    x...1192  CNS..015     -1.000000   CNS..201      1.000000
    x...1192  UC..1192      1.000000
    x...1193  CNS..103      1.000000   CNS..201     -1.000000
    x...1193  UC..1193      1.000000
    x...1194  CNS..103     -1.000000   CNS..201      1.000000
    x...1194  UC..1194      1.000000
    x...1195  CNS..202     -1.000000   CNS..392      1.000000
    x...1195  UC..1195      1.000000
    x...1196  CNS..182      1.000000   CNS..202     -1.000000
    x...1196  UC..1196      1.000000
    x...1197  CNS..028      1.000000   CNS..182     -1.000000
    x...1197  UC..1197      1.000000
    x...1198  CNS..028     -1.000000   CNS..182      1.000000
    x...1198  UC..1198      1.000000
    x...1199  CNS..202     -1.000000   CNS..367      1.000000
    x...1199  UC..1199      1.000000
    x...1200  CNS..013     -1.000000   CNS..367      1.000000
    x...1200  UC..1200      1.000000
    x...1201  CNS..203     -1.000000   CNS..320      1.000000
    x...1201  UC..1201      1.000000
    x...1202  CNS..203     -1.000000   CNS..427      1.000000
    x...1202  UC..1202      1.000000
    x...1203  CNS..022     -1.000000   CNS..177      1.000000
    x...1203  UC..1203      1.000000
    x...1204  CNS..022      1.000000   CNS..177     -1.000000
    x...1204  UC..1204      1.000000
    x...1205  CNS..176     -1.000000   CNS..203      1.000000
    x...1205  UC..1205      1.000000
    x...1206  CNS..176      1.000000   CNS..203     -1.000000
    x...1206  UC..1206      1.000000
    x...1207  CNS..179      1.000000   CNS..204     -1.000000
    x...1207  UC..1207      1.000000
    x...1208  CNS..019      1.000000   CNS..204     -1.000000
    x...1208  UC..1208      1.000000
    x...1209  CNS..019      1.000000   CNS..179     -1.000000
    x...1209  UC..1209      1.000000
    x...1210  CNS..019     -1.000000   CNS..179      1.000000
    x...1210  UC..1210      1.000000
    x...1211  CNS..200      1.000000   CNS..205     -1.000000
    x...1211  UC..1211      1.000000
    x...1212  CNS..066      1.000000   CNS..205     -1.000000
    x...1212  UC..1212      1.000000
    x...1213  CNS..119      1.000000   CNS..205     -1.000000
    x...1213  UC..1213      1.000000
    x...1214  CNS..119     -1.000000   CNS..205      1.000000
    x...1214  UC..1214      1.000000
    x...1215  CNS..196      1.000000   CNS..206     -1.000000
    x...1215  UC..1215      1.000000
    x...1216  CNS..206     -1.000000   CNS..495      1.000000
    x...1216  UC..1216      1.000000
    x...1217  CNS..090      1.000000   CNS..207     -1.000000
    x...1217  UC..1217      1.000000
    x...1218  CNS..008      1.000000   CNS..207     -1.000000
    x...1218  UC..1218      1.000000
    x...1219  CNS..208     -1.000000   CNS..223      1.000000
    x...1219  UC..1219      1.000000
    x...1220  CNS..062      1.000000   CNS..208     -1.000000
    x...1220  UC..1220      1.000000
    x...1221  CNS..184     -1.000000   CNS..207      1.000000
    x...1221  UC..1221      1.000000
    x...1222  CNS..184      1.000000   CNS..207     -1.000000
    x...1222  UC..1222      1.000000
    x...1223  CNS..209     -1.000000   CNS..444      1.000000
    x...1223  UC..1223      1.000000
    x...1224  CNS..082      1.000000   CNS..209     -1.000000
    x...1224  UC..1224      1.000000
    x...1225  CNS..012      1.000000   CNS..206     -1.000000
    x...1225  UC..1225      1.000000
    x...1226  CNS..012     -1.000000   CNS..206      1.000000
    x...1226  UC..1226      1.000000
    x...1227  CNS..023      1.000000   CNS..210     -1.000000
    x...1227  UC..1227      1.000000
    x...1228  CNS..210     -1.000000   CNS..340      1.000000
    x...1228  UC..1228      1.000000
    x...1229  CNS..211     -1.000000   CNS..473      1.000000
    x...1229  UC..1229      1.000000
    x...1230  CNS..003      1.000000   CNS..211     -1.000000
    x...1230  UC..1230      1.000000
    x...1231  CNS..003     -1.000000   CNS..424      1.000000
    x...1231  UC..1231      1.000000
    x...1232  CNS..115     -1.000000   CNS..424      1.000000
    x...1232  UC..1232      1.000000
    x...1233  CNS..048      1.000000   CNS..212     -1.000000
    x...1233  UC..1233      1.000000
    x...1234  CNS..063      1.000000   CNS..212     -1.000000
    x...1234  UC..1234      1.000000
    x...1235  CNS..025      1.000000   CNS..213     -1.000000
    x...1235  UC..1235      1.000000
    x...1236  CNS..213     -1.000000   CNS..429      1.000000
    x...1236  UC..1236      1.000000
    x...1237  CNS..090     -1.000000   CNS..280      1.000000
    x...1237  UC..1237      1.000000
    x...1238  CNS..008     -1.000000   CNS..280      1.000000
    x...1238  UC..1238      1.000000
    x...1239  CNS..062     -1.000000   CNS..160      1.000000
    x...1239  UC..1239      1.000000
    x...1240  CNS..062      1.000000   CNS..160     -1.000000
    x...1240  UC..1240      1.000000
    x...1241  CNS..115     -1.000000   CNS..300      1.000000
    x...1241  UC..1241      1.000000
    x...1242  CNS..003     -1.000000   CNS..290      1.000000
    x...1242  UC..1242      1.000000
    x...1243  CNS..100      1.000000   CNS..223     -1.000000
    x...1243  UC..1243      1.000000
    x...1244  CNS..100     -1.000000   CNS..223      1.000000
    x...1244  UC..1244      1.000000
    x...1245  CNS..212     -1.000000   CNS..251      1.000000
    x...1245  UC..1245      1.000000
    x...1246  CNS..004     -1.000000   CNS..251      1.000000
    x...1246  UC..1246      1.000000
    x...1247  CNS..018     -1.000000   CNS..204      1.000000
    x...1247  UC..1247      1.000000
    x...1248  CNS..018      1.000000   CNS..204     -1.000000
    x...1248  UC..1248      1.000000
    x...1249  CNS..019     -1.000000   CNS..025      1.000000
    x...1249  UC..1249      1.000000
    x...1250  CNS..019      1.000000   CNS..025     -1.000000
    x...1250  UC..1250      1.000000
    x...1251  CNS..124      1.000000   CNS..200     -1.000000
    x...1251  UC..1251      1.000000
    x...1252  CNS..124     -1.000000   CNS..200      1.000000
    x...1252  UC..1252      1.000000
    x...1253  CNS..210     -1.000000   CNS..263      1.000000
    x...1253  UC..1253      1.000000
    x...1254  CNS..210      1.000000   CNS..263     -1.000000
    x...1254  UC..1254      1.000000
    x...1255  CNS..048     -1.000000   CNS..063      1.000000
    x...1255  UC..1255      1.000000
    x...1256  CNS..048      1.000000   CNS..063     -1.000000
    x...1256  UC..1256      1.000000
    x...1257  CNS..012      1.000000   CNS..214     -1.000000
    x...1257  UC..1257      1.000000
    x...1258  CNS..214     -1.000000   CNS..229      1.000000
    x...1258  UC..1258      1.000000
    x...1259  CNS..004      1.000000   CNS..082     -1.000000
    x...1259  UC..1259      1.000000
    x...1260  CNS..004     -1.000000   CNS..082      1.000000
    x...1260  UC..1260      1.000000
    x...1261  CNS..004      1.000000   CNS..210     -1.000000
    x...1261  UC..1261      1.000000
    x...1262  CNS..004     -1.000000   CNS..210      1.000000
    x...1262  UC..1262      1.000000
    x...1263  CNS..161     -1.000000   CNS..402      1.000000
    x...1263  UC..1263      1.000000
    x...1264  CNS..214     -1.000000   CNS..402      1.000000
    x...1264  UC..1264      1.000000
    x...1265  CNS..024      1.000000   CNS..215     -1.000000
    x...1265  UC..1265      1.000000
    x...1266  CNS..021      1.000000   CNS..215     -1.000000
    x...1266  UC..1266      1.000000
    x...1267  CNS..001     -1.000000   CNS..215      1.000000
    x...1267  UC..1267      1.000000
    x...1268  CNS..001      1.000000   CNS..215     -1.000000
    x...1268  UC..1268      1.000000
    x...1269  CNS..076     -1.000000   CNS..215      1.000000
    x...1269  UC..1269      1.000000
    x...1270  CNS..076      1.000000   CNS..215     -1.000000
    x...1270  UC..1270      1.000000
    x...1271  CNS..078     -1.000000   CNS..444      1.000000
    x...1271  UC..1271      1.000000
    x...1272  CNS..078      1.000000   CNS..444     -1.000000
    x...1272  UC..1272      1.000000
    x...1273  CNS..206     -1.000000   CNS..214      1.000000
    x...1273  UC..1273      1.000000
    x...1274  CNS..206      1.000000   CNS..214     -1.000000
    x...1274  UC..1274      1.000000
    x...1275  CNS..196     -1.000000   CNS..482      1.000000
    x...1275  UC..1275      1.000000
    x...1276  CNS..099     -1.000000   CNS..482      1.000000
    x...1276  UC..1276      1.000000
    x...1277  CNS..017     -1.000000   CNS..400      1.000000
    x...1277  UC..1277      1.000000
    x...1278  CNS..017      1.000000   CNS..400     -1.000000
    x...1278  UC..1278      1.000000
    x...1279  CNS..025      1.000000   CNS..216     -1.000000
    x...1279  UC..1279      1.000000
    x...1280  CNS..017      1.000000   CNS..216     -1.000000
    x...1280  UC..1280      1.000000
    x...1281  CNS..017     -1.000000   CNS..359      1.000000
    x...1281  UC..1281      1.000000
    x...1282  CNS..025     -1.000000   CNS..359      1.000000
    x...1282  UC..1282      1.000000
    x...1283  CNS..017     -1.000000   CNS..025      1.000000
    x...1283  UC..1283      1.000000
    x...1284  CNS..017      1.000000   CNS..025     -1.000000
    x...1284  UC..1284      1.000000
    x...1285  CNS..006      1.000000   CNS..217     -1.000000
    x...1285  UC..1285      1.000000
    x...1286  CNS..217     -1.000000   CNS..447      1.000000
    x...1286  UC..1286      1.000000
    x...1287  CNS..050     -1.000000   CNS..282      1.000000
    x...1287  UC..1287      1.000000
    x...1288  CNS..217     -1.000000   CNS..282      1.000000
    x...1288  UC..1288      1.000000
    x...1289  CNS..132     -1.000000   CNS..217      1.000000
    x...1289  UC..1289      1.000000
    x...1290  CNS..132      1.000000   CNS..217     -1.000000
    x...1290  UC..1290      1.000000
    x...1291  CNS..158      1.000000   CNS..218     -1.000000
    x...1291  UC..1291      1.000000
    x...1292  CNS..020      1.000000   CNS..218     -1.000000
    x...1292  UC..1292      1.000000
    x...1293  CNS..163      1.000000   CNS..219     -1.000000
    x...1293  UC..1293      1.000000
    x...1294  CNS..049      1.000000   CNS..219     -1.000000
    x...1294  UC..1294      1.000000
    x...1295  CNS..135      1.000000   CNS..220     -1.000000
    x...1295  UC..1295      1.000000
    x...1296  CNS..220     -1.000000   CNS..288      1.000000
    x...1296  UC..1296      1.000000
    x...1297  CNS..003     -1.000000   CNS..135      1.000000
    x...1297  UC..1297      1.000000
    x...1298  CNS..003      1.000000   CNS..135     -1.000000
    x...1298  UC..1298      1.000000
    x...1299  CNS..020      1.000000   CNS..158     -1.000000
    x...1299  UC..1299      1.000000
    x...1300  CNS..020     -1.000000   CNS..158      1.000000
    x...1300  UC..1300      1.000000
    x...1301  CNS..010     -1.000000   CNS..219      1.000000
    x...1301  UC..1301      1.000000
    x...1302  CNS..010      1.000000   CNS..219     -1.000000
    x...1302  UC..1302      1.000000
    x...1303  CNS..008      1.000000   CNS..220     -1.000000
    x...1303  UC..1303      1.000000
    x...1304  CNS..008     -1.000000   CNS..220      1.000000
    x...1304  UC..1304      1.000000
    x...1305  CNS..049     -1.000000   CNS..163      1.000000
    x...1305  UC..1305      1.000000
    x...1306  CNS..049      1.000000   CNS..163     -1.000000
    x...1306  UC..1306      1.000000
    x...1307  CNS..001      1.000000   CNS..221     -1.000000
    x...1307  UC..1307      1.000000
    x...1308  CNS..007      1.000000   CNS..221     -1.000000
    x...1308  UC..1308      1.000000
    x...1309  CNS..004     -1.000000   CNS..221      1.000000
    x...1309  UC..1309      1.000000
    x...1310  CNS..004      1.000000   CNS..221     -1.000000
    x...1310  UC..1310      1.000000
    x...1311  CNS..218     -1.000000   CNS..422      1.000000
    x...1311  UC..1311      1.000000
    x...1312  CNS..001     -1.000000   CNS..422      1.000000
    x...1312  UC..1312      1.000000
    x...1313  CNS..221     -1.000000   CNS..292      1.000000
    x...1313  UC..1313      1.000000
    x...1314  CNS..092     -1.000000   CNS..292      1.000000
    x...1314  UC..1314      1.000000
    x...1315  CNS..058      1.000000   CNS..222     -1.000000
    x...1315  UC..1315      1.000000
    x...1316  CNS..194      1.000000   CNS..222     -1.000000
    x...1316  UC..1316      1.000000
    x...1317  CNS..058     -1.000000   CNS..194      1.000000
    x...1317  UC..1317      1.000000
    x...1318  CNS..058      1.000000   CNS..194     -1.000000
    x...1318  UC..1318      1.000000
    x...1319  CNS..160      1.000000   CNS..223     -1.000000
    x...1319  UC..1319      1.000000
    x...1320  CNS..208      1.000000   CNS..223     -1.000000
    x...1320  UC..1320      1.000000
    x...1321  CNS..046      1.000000   CNS..224     -1.000000
    x...1321  UC..1321      1.000000
    x...1322  CNS..151      1.000000   CNS..224     -1.000000
    x...1322  UC..1322      1.000000
    x...1323  CNS..006      1.000000   CNS..225     -1.000000
    x...1323  UC..1323      1.000000
    x...1324  CNS..027      1.000000   CNS..225     -1.000000
    x...1324  UC..1324      1.000000
    x...1325  CNS..151     -1.000000   CNS..393      1.000000
    x...1325  UC..1325      1.000000
    x...1326  CNS..046     -1.000000   CNS..398      1.000000
    x...1326  UC..1326      1.000000
    x...1327  CNS..016      1.000000   CNS..226     -1.000000
    x...1327  UC..1327      1.000000
    x...1328  CNS..028      1.000000   CNS..226     -1.000000
    x...1328  UC..1328      1.000000
    x...1329  CNS..006     -1.000000   CNS..027      1.000000
    x...1329  UC..1329      1.000000
    x...1330  CNS..006      1.000000   CNS..027     -1.000000
    x...1330  UC..1330      1.000000
    x...1331  CNS..087     -1.000000   CNS..421      1.000000
    x...1331  UC..1331      1.000000
    x...1332  CNS..225     -1.000000   CNS..421      1.000000
    x...1332  UC..1332      1.000000
    x...1333  CNS..046      1.000000   CNS..151     -1.000000
    x...1333  UC..1333      1.000000
    x...1334  CNS..046     -1.000000   CNS..151      1.000000
    x...1334  UC..1334      1.000000
    x...1335  CNS..006      1.000000   CNS..227     -1.000000
    x...1335  UC..1335      1.000000
    x...1336  CNS..050      1.000000   CNS..227     -1.000000
    x...1336  UC..1336      1.000000
    x...1337  CNS..062      1.000000   CNS..223     -1.000000
    x...1337  UC..1337      1.000000
    x...1338  CNS..062     -1.000000   CNS..223      1.000000
    x...1338  UC..1338      1.000000
    x...1339  CNS..217      1.000000   CNS..227     -1.000000
    x...1339  UC..1339      1.000000
    x...1340  CNS..217     -1.000000   CNS..227      1.000000
    x...1340  UC..1340      1.000000
    x...1341  CNS..006      1.000000   CNS..228     -1.000000
    x...1341  UC..1341      1.000000
    x...1342  CNS..094      1.000000   CNS..228     -1.000000
    x...1342  UC..1342      1.000000
    x...1343  CNS..214      1.000000   CNS..229     -1.000000
    x...1343  UC..1343      1.000000
    x...1344  CNS..229     -1.000000   CNS..479      1.000000
    x...1344  UC..1344      1.000000
    x...1345  CNS..185      1.000000   CNS..230     -1.000000
    x...1345  UC..1345      1.000000
    x...1346  CNS..030      1.000000   CNS..230     -1.000000
    x...1346  UC..1346      1.000000
    x...1347  CNS..011      1.000000   CNS..231     -1.000000
    x...1347  UC..1347      1.000000
    x...1348  CNS..231     -1.000000   CNS..358      1.000000
    x...1348  UC..1348      1.000000
    x...1349  CNS..030      1.000000   CNS..185     -1.000000
    x...1349  UC..1349      1.000000
    x...1350  CNS..030     -1.000000   CNS..185      1.000000
    x...1350  UC..1350      1.000000
    x...1351  CNS..199      1.000000   CNS..232     -1.000000
    x...1351  UC..1351      1.000000
    x...1352  CNS..077      1.000000   CNS..232     -1.000000
    x...1352  UC..1352      1.000000
    x...1353  CNS..003     -1.000000   CNS..228      1.000000
    x...1353  UC..1353      1.000000
    x...1354  CNS..003      1.000000   CNS..228     -1.000000
    x...1354  UC..1354      1.000000
    x...1355  CNS..006      1.000000   CNS..094     -1.000000
    x...1355  UC..1355      1.000000
    x...1356  CNS..006     -1.000000   CNS..094      1.000000
    x...1356  UC..1356      1.000000
    x...1357  CNS..104      1.000000   CNS..233     -1.000000
    x...1357  UC..1357      1.000000
    x...1358  CNS..038      1.000000   CNS..233     -1.000000
    x...1358  UC..1358      1.000000
    x...1359  CNS..062      1.000000   CNS..234     -1.000000
    x...1359  UC..1359      1.000000
    x...1360  CNS..004      1.000000   CNS..234     -1.000000
    x...1360  UC..1360      1.000000
    x...1361  CNS..016      1.000000   CNS..028     -1.000000
    x...1361  UC..1361      1.000000
    x...1362  CNS..016     -1.000000   CNS..028      1.000000
    x...1362  UC..1362      1.000000
    x...1363  CNS..004     -1.000000   CNS..062      1.000000
    x...1363  UC..1363      1.000000
    x...1364  CNS..004      1.000000   CNS..062     -1.000000
    x...1364  UC..1364      1.000000
    x...1365  CNS..130      1.000000   CNS..235     -1.000000
    x...1365  UC..1365      1.000000
    x...1366  CNS..041      1.000000   CNS..235     -1.000000
    x...1366  UC..1366      1.000000
    x...1367  CNS..004      1.000000   CNS..236     -1.000000
    x...1367  UC..1367      1.000000
    x...1368  CNS..116      1.000000   CNS..236     -1.000000
    x...1368  UC..1368      1.000000
    x...1369  CNS..196     -1.000000   CNS..328      1.000000
    x...1369  UC..1369      1.000000
    x...1370  CNS..214     -1.000000   CNS..328      1.000000
    x...1370  UC..1370      1.000000
    x...1371  CNS..027      1.000000   CNS..237     -1.000000
    x...1371  UC..1371      1.000000
    x...1372  CNS..175      1.000000   CNS..237     -1.000000
    x...1372  UC..1372      1.000000
    x...1373  CNS..052      1.000000   CNS..238     -1.000000
    x...1373  UC..1373      1.000000
    x...1374  CNS..064      1.000000   CNS..238     -1.000000
    x...1374  UC..1374      1.000000
    x...1375  CNS..052      1.000000   CNS..227     -1.000000
    x...1375  UC..1375      1.000000
    x...1376  CNS..052     -1.000000   CNS..227      1.000000
    x...1376  UC..1376      1.000000
    x...1377  CNS..059      1.000000   CNS..239     -1.000000
    x...1377  UC..1377      1.000000
    x...1378  CNS..101      1.000000   CNS..239     -1.000000
    x...1378  UC..1378      1.000000
    x...1379  CNS..196     -1.000000   CNS..322      1.000000
    x...1379  UC..1379      1.000000
    x...1380  CNS..214     -1.000000   CNS..322      1.000000
    x...1380  UC..1380      1.000000
    x...1381  CNS..041      1.000000   CNS..240     -1.000000
    x...1381  UC..1381      1.000000
    x...1382  CNS..010      1.000000   CNS..240     -1.000000
    x...1382  UC..1382      1.000000
    x...1383  CNS..241     -1.000000   CNS..467      1.000000
    x...1383  UC..1383      1.000000
    x...1384  CNS..241     -1.000000   CNS..464      1.000000
    x...1384  UC..1384      1.000000
    x...1385  CNS..010      1.000000   CNS..232     -1.000000
    x...1385  UC..1385      1.000000
    x...1386  CNS..010     -1.000000   CNS..232      1.000000
    x...1386  UC..1386      1.000000
    x...1387  CNS..020      1.000000   CNS..242     -1.000000
    x...1387  UC..1387      1.000000
    x...1388  CNS..012      1.000000   CNS..242     -1.000000
    x...1388  UC..1388      1.000000
    x...1389  CNS..039      1.000000   CNS..237     -1.000000
    x...1389  UC..1389      1.000000
    x...1390  CNS..039     -1.000000   CNS..237      1.000000
    x...1390  UC..1390      1.000000
    x...1391  CNS..105     -1.000000   CNS..240      1.000000
    x...1391  UC..1391      1.000000
    x...1392  CNS..105      1.000000   CNS..240     -1.000000
    x...1392  UC..1392      1.000000
    x...1393  CNS..013      1.000000   CNS..226     -1.000000
    x...1393  UC..1393      1.000000
    x...1394  CNS..013     -1.000000   CNS..226      1.000000
    x...1394  UC..1394      1.000000
    x...1395  CNS..006     -1.000000   CNS..238      1.000000
    x...1395  UC..1395      1.000000
    x...1396  CNS..006      1.000000   CNS..238     -1.000000
    x...1396  UC..1396      1.000000
    x...1397  CNS..011      1.000000   CNS..035     -1.000000
    x...1397  UC..1397      1.000000
    x...1398  CNS..011     -1.000000   CNS..035      1.000000
    x...1398  UC..1398      1.000000
    x...1399  CNS..046      1.000000   CNS..243     -1.000000
    x...1399  UC..1399      1.000000
    x...1400  CNS..069      1.000000   CNS..243     -1.000000
    x...1400  UC..1400      1.000000
    x...1401  CNS..016      1.000000   CNS..244     -1.000000
    x...1401  UC..1401      1.000000
    x...1402  CNS..191      1.000000   CNS..244     -1.000000
    x...1402  UC..1402      1.000000
    x...1403  CNS..100     -1.000000   CNS..234      1.000000
    x...1403  UC..1403      1.000000
    x...1404  CNS..100      1.000000   CNS..234     -1.000000
    x...1404  UC..1404      1.000000
    x...1405  CNS..004      1.000000   CNS..116     -1.000000
    x...1405  UC..1405      1.000000
    x...1406  CNS..004     -1.000000   CNS..116      1.000000
    x...1406  UC..1406      1.000000
    x...1407  CNS..105      1.000000   CNS..245     -1.000000
    x...1407  UC..1407      1.000000
    x...1408  CNS..130      1.000000   CNS..245     -1.000000
    x...1408  UC..1408      1.000000
    x...1409  CNS..050     -1.000000   CNS..324      1.000000
    x...1409  UC..1409      1.000000
    x...1410  CNS..238     -1.000000   CNS..324      1.000000
    x...1410  UC..1410      1.000000
    x...1411  CNS..024      1.000000   CNS..246     -1.000000
    x...1411  UC..1411      1.000000
    x...1412  CNS..246     -1.000000   CNS..298      1.000000
    x...1412  UC..1412      1.000000
    x...1413  CNS..169      1.000000   CNS..247     -1.000000
    x...1413  UC..1413      1.000000
    x...1414  CNS..004      1.000000   CNS..247     -1.000000
    x...1414  UC..1414      1.000000
    x...1415  CNS..001     -1.000000   CNS..246      1.000000
    x...1415  UC..1415      1.000000
    x...1416  CNS..001      1.000000   CNS..246     -1.000000
    x...1416  UC..1416      1.000000
    x...1417  CNS..055      1.000000   CNS..248     -1.000000
    x...1417  UC..1417      1.000000
    x...1418  CNS..096      1.000000   CNS..248     -1.000000
    x...1418  UC..1418      1.000000
    x...1419  CNS..003      1.000000   CNS..249     -1.000000
    x...1419  UC..1419      1.000000
    x...1420  CNS..004      1.000000   CNS..249     -1.000000
    x...1420  UC..1420      1.000000
    x...1421  CNS..065      1.000000   CNS..239     -1.000000
    x...1421  UC..1421      1.000000
    x...1422  CNS..065     -1.000000   CNS..239      1.000000
    x...1422  UC..1422      1.000000
    x...1423  CNS..248     -1.000000   CNS..426      1.000000
    x...1423  UC..1423      1.000000
    x...1424  CNS..028     -1.000000   CNS..426      1.000000
    x...1424  UC..1424      1.000000
    x...1425  CNS..250     -1.000000   CNS..272      1.000000
    x...1425  UC..1425      1.000000
    x...1426  CNS..008      1.000000   CNS..250     -1.000000
    x...1426  UC..1426      1.000000
    x...1427  CNS..004      1.000000   CNS..251     -1.000000
    x...1427  UC..1427      1.000000
    x...1428  CNS..212      1.000000   CNS..251     -1.000000
    x...1428  UC..1428      1.000000
    x...1429  CNS..252     -1.000000   CNS..327      1.000000
    x...1429  UC..1429      1.000000
    x...1430  CNS..252     -1.000000   CNS..483      1.000000
    x...1430  UC..1430      1.000000
    x...1431  CNS..033      1.000000   CNS..247     -1.000000
    x...1431  UC..1431      1.000000
    x...1432  CNS..033     -1.000000   CNS..247      1.000000
    x...1432  UC..1432      1.000000
    x...1433  CNS..013      1.000000   CNS..244     -1.000000
    x...1433  UC..1433      1.000000
    x...1434  CNS..013     -1.000000   CNS..244      1.000000
    x...1434  UC..1434      1.000000
    x...1435  CNS..253     -1.000000   CNS..455      1.000000
    x...1435  UC..1435      1.000000
    x...1436  CNS..253     -1.000000   CNS..390      1.000000
    x...1436  UC..1436      1.000000
    x...1437  CNS..024     -1.000000   CNS..188      1.000000
    x...1437  UC..1437      1.000000
    x...1438  CNS..024      1.000000   CNS..188     -1.000000
    x...1438  UC..1438      1.000000
    x...1439  CNS..245     -1.000000   CNS..329      1.000000
    x...1439  UC..1439      1.000000
    x...1440  CNS..041     -1.000000   CNS..329      1.000000
    x...1440  UC..1440      1.000000
    x...1441  CNS..075      1.000000   CNS..250     -1.000000
    x...1441  UC..1441      1.000000
    x...1442  CNS..075     -1.000000   CNS..250      1.000000
    x...1442  UC..1442      1.000000
    x...1443  CNS..235     -1.000000   CNS..245      1.000000
    x...1443  UC..1443      1.000000
    x...1444  CNS..235      1.000000   CNS..245     -1.000000
    x...1444  UC..1444      1.000000
    x...1445  CNS..139     -1.000000   CNS..244      1.000000
    x...1445  UC..1445      1.000000
    x...1446  CNS..139      1.000000   CNS..244     -1.000000
    x...1446  UC..1446      1.000000
    x...1447  CNS..012     -1.000000   CNS..020      1.000000
    x...1447  UC..1447      1.000000
    x...1448  CNS..012      1.000000   CNS..020     -1.000000
    x...1448  UC..1448      1.000000
    x...1449  CNS..018      1.000000   CNS..157     -1.000000
    x...1449  UC..1449      1.000000
    x...1450  CNS..018     -1.000000   CNS..157      1.000000
    x...1450  UC..1450      1.000000
    x...1451  CNS..069      1.000000   CNS..254     -1.000000
    x...1451  UC..1451      1.000000
    x...1452  CNS..254     -1.000000   CNS..432      1.000000
    x...1452  UC..1452      1.000000
    x...1453  CNS..171      1.000000   CNS..255     -1.000000
    x...1453  UC..1453      1.000000
    x...1454  CNS..173      1.000000   CNS..255     -1.000000
    x...1454  UC..1454      1.000000
    x...1455  CNS..100     -1.000000   CNS..208      1.000000
    x...1455  UC..1455      1.000000
    x...1456  CNS..100      1.000000   CNS..208     -1.000000
    x...1456  UC..1456      1.000000
    x...1457  CNS..240     -1.000000   CNS..379      1.000000
    x...1457  UC..1457      1.000000
    x...1458  CNS..077     -1.000000   CNS..379      1.000000
    x...1458  UC..1458      1.000000
    x...1459  CNS..063      1.000000   CNS..251     -1.000000
    x...1459  UC..1459      1.000000
    x...1460  CNS..063     -1.000000   CNS..251      1.000000
    x...1460  UC..1460      1.000000
    x...1461  CNS..055     -1.000000   CNS..096      1.000000
    x...1461  UC..1461      1.000000
    x...1462  CNS..055      1.000000   CNS..096     -1.000000
    x...1462  UC..1462      1.000000
    x...1463  CNS..010     -1.000000   CNS..069      1.000000
    x...1463  UC..1463      1.000000
    x...1464  CNS..010      1.000000   CNS..069     -1.000000
    x...1464  UC..1464      1.000000
    x...1465  CNS..075      1.000000   CNS..256     -1.000000
    x...1465  UC..1465      1.000000
    x...1466  CNS..256     -1.000000   CNS..468      1.000000
    x...1466  UC..1466      1.000000
    x...1467  CNS..180     -1.000000   CNS..381      1.000000
    x...1467  UC..1467      1.000000
    x...1468  CNS..249     -1.000000   CNS..381      1.000000
    x...1468  UC..1468      1.000000
    x...1469  CNS..097      1.000000   CNS..140     -1.000000
    x...1469  UC..1469      1.000000
    x...1470  CNS..097     -1.000000   CNS..140      1.000000
    x...1470  UC..1470      1.000000
    x...1471  CNS..007      1.000000   CNS..257     -1.000000
    x...1471  UC..1471      1.000000
    x...1472  CNS..020      1.000000   CNS..257     -1.000000
    x...1472  UC..1472      1.000000
    x...1473  CNS..172      1.000000   CNS..256     -1.000000
    x...1473  UC..1473      1.000000
    x...1474  CNS..172     -1.000000   CNS..256      1.000000
    x...1474  UC..1474      1.000000
    x...1475  CNS..039      1.000000   CNS..258     -1.000000
    x...1475  UC..1475      1.000000
    x...1476  CNS..258     -1.000000   CNS..493      1.000000
    x...1476  UC..1476      1.000000
    x...1477  CNS..027     -1.000000   CNS..175      1.000000
    x...1477  UC..1477      1.000000
    x...1478  CNS..027      1.000000   CNS..175     -1.000000
    x...1478  UC..1478      1.000000
    x...1479  CNS..008      1.000000   CNS..150     -1.000000
    x...1479  UC..1479      1.000000
    x...1480  CNS..008     -1.000000   CNS..150      1.000000
    x...1480  UC..1480      1.000000
    x...1481  CNS..011     -1.000000   CNS..284      1.000000
    x...1481  UC..1481      1.000000
    x...1482  CNS..035     -1.000000   CNS..284      1.000000
    x...1482  UC..1482      1.000000
    x...1483  CNS..011      1.000000   CNS..327     -1.000000
    x...1483  UC..1483      1.000000
    x...1484  CNS..011     -1.000000   CNS..327      1.000000
    x...1484  UC..1484      1.000000
    x...1485  CNS..003      1.000000   CNS..004     -1.000000
    x...1485  UC..1485      1.000000
    x...1486  CNS..003     -1.000000   CNS..004      1.000000
    x...1486  UC..1486      1.000000
    x...1487  CNS..007      1.000000   CNS..242     -1.000000
    x...1487  UC..1487      1.000000
    x...1488  CNS..007     -1.000000   CNS..242      1.000000
    x...1488  UC..1488      1.000000
    x...1489  CNS..038     -1.000000   CNS..104      1.000000
    x...1489  UC..1489      1.000000
    x...1490  CNS..038      1.000000   CNS..104     -1.000000
    x...1490  UC..1490      1.000000
    x...1491  CNS..193      1.000000   CNS..232     -1.000000
    x...1491  UC..1491      1.000000
    x...1492  CNS..193     -1.000000   CNS..232      1.000000
    x...1492  UC..1492      1.000000
    x...1493  CNS..048      1.000000   CNS..251     -1.000000
    x...1493  UC..1493      1.000000
    x...1494  CNS..048     -1.000000   CNS..251      1.000000
    x...1494  UC..1494      1.000000
    x...1495  CNS..074      1.000000   CNS..259     -1.000000
    x...1495  UC..1495      1.000000
    x...1496  CNS..117      1.000000   CNS..259     -1.000000
    x...1496  UC..1496      1.000000
    x...1497  CNS..041      1.000000   CNS..130     -1.000000
    x...1497  UC..1497      1.000000
    x...1498  CNS..041     -1.000000   CNS..130      1.000000
    x...1498  UC..1498      1.000000
    x...1499  CNS..002      1.000000   CNS..260     -1.000000
    x...1499  UC..1499      1.000000
    x...1500  CNS..197      1.000000   CNS..260     -1.000000
    x...1500  UC..1500      1.000000
    x...1501  CNS..002     -1.000000   CNS..197      1.000000
    x...1501  UC..1501      1.000000
    x...1502  CNS..002      1.000000   CNS..197     -1.000000
    x...1502  UC..1502      1.000000
    x...1503  CNS..100      1.000000   CNS..222     -1.000000
    x...1503  UC..1503      1.000000
    x...1504  CNS..100     -1.000000   CNS..222      1.000000
    x...1504  UC..1504      1.000000
    x...1505  CNS..003      1.000000   CNS..261     -1.000000
    x...1505  UC..1505      1.000000
    x...1506  CNS..142      1.000000   CNS..261     -1.000000
    x...1506  UC..1506      1.000000
    x...1507  CNS..015      1.000000   CNS..262     -1.000000
    x...1507  UC..1507      1.000000
    x...1508  CNS..057      1.000000   CNS..262     -1.000000
    x...1508  UC..1508      1.000000
    x...1509  CNS..069      1.000000   CNS..245     -1.000000
    x...1509  UC..1509      1.000000
    x...1510  CNS..069     -1.000000   CNS..245      1.000000
    x...1510  UC..1510      1.000000
    x...1511  CNS..126      1.000000   CNS..263     -1.000000
    x...1511  UC..1511      1.000000
    x...1512  CNS..023      1.000000   CNS..263     -1.000000
    x...1512  UC..1512      1.000000
    x...1513  CNS..001      1.000000   CNS..230     -1.000000
    x...1513  UC..1513      1.000000
    x...1514  CNS..001     -1.000000   CNS..230      1.000000
    x...1514  UC..1514      1.000000
    x...1515  CNS..015      1.000000   CNS..057     -1.000000
    x...1515  UC..1515      1.000000
    x...1516  CNS..015     -1.000000   CNS..057      1.000000
    x...1516  UC..1516      1.000000
    x...1517  CNS..126     -1.000000   CNS..437      1.000000
    x...1517  UC..1517      1.000000
    x...1518  CNS..023     -1.000000   CNS..437      1.000000
    x...1518  UC..1518      1.000000
    x...1519  CNS..015      1.000000   CNS..264     -1.000000
    x...1519  UC..1519      1.000000
    x...1520  CNS..264     -1.000000   CNS..360      1.000000
    x...1520  UC..1520      1.000000
    x...1521  CNS..004      1.000000   CNS..265     -1.000000
    x...1521  UC..1521      1.000000
    x...1522  CNS..037      1.000000   CNS..265     -1.000000
    x...1522  UC..1522      1.000000
    x...1523  CNS..243     -1.000000   CNS..438      1.000000
    x...1523  UC..1523      1.000000
    x...1524  CNS..008     -1.000000   CNS..438      1.000000
    x...1524  UC..1524      1.000000
    x...1525  CNS..003     -1.000000   CNS..142      1.000000
    x...1525  UC..1525      1.000000
    x...1526  CNS..003      1.000000   CNS..142     -1.000000
    x...1526  UC..1526      1.000000
    x...1527  CNS..007     -1.000000   CNS..412      1.000000
    x...1527  UC..1527      1.000000
    x...1528  CNS..020     -1.000000   CNS..412      1.000000
    x...1528  UC..1528      1.000000
    x...1529  CNS..266     -1.000000   CNS..309      1.000000
    x...1529  UC..1529      1.000000
    x...1530  CNS..015      1.000000   CNS..266     -1.000000
    x...1530  UC..1530      1.000000
    x...1531  CNS..301      1.000000   CNS..448     -1.000000
    x...1531  UC..1531      1.000000
    x...1532  CNS..301     -1.000000   CNS..448      1.000000
    x...1532  UC..1532      1.000000
    x...1533  CNS..027      1.000000   CNS..259     -1.000000
    x...1533  UC..1533      1.000000
    x...1534  CNS..027     -1.000000   CNS..259      1.000000
    x...1534  UC..1534      1.000000
    x...1535  CNS..054      1.000000   CNS..266     -1.000000
    x...1535  UC..1535      1.000000
    x...1536  CNS..054     -1.000000   CNS..266      1.000000
    x...1536  UC..1536      1.000000
    x...1537  CNS..164      1.000000   CNS..260     -1.000000
    x...1537  UC..1537      1.000000
    x...1538  CNS..164     -1.000000   CNS..260      1.000000
    x...1538  UC..1538      1.000000
    x...1539  CNS..140     -1.000000   CNS..233      1.000000
    x...1539  UC..1539      1.000000
    x...1540  CNS..140      1.000000   CNS..233     -1.000000
    x...1540  UC..1540      1.000000
    x...1541  CNS..258      1.000000   CNS..259     -1.000000
    x...1541  UC..1541      1.000000
    x...1542  CNS..258     -1.000000   CNS..259      1.000000
    x...1542  UC..1542      1.000000
    x...1543  CNS..039      1.000000   CNS..259     -1.000000
    x...1543  UC..1543      1.000000
    x...1544  CNS..039     -1.000000   CNS..259      1.000000
    x...1544  UC..1544      1.000000
    x...1545  CNS..004      1.000000   CNS..267     -1.000000
    x...1545  UC..1545      1.000000
    x...1546  CNS..267     -1.000000   CNS..475      1.000000
    x...1546  UC..1546      1.000000
    x...1547  CNS..004     -1.000000   CNS..048      1.000000
    x...1547  UC..1547      1.000000
    x...1548  CNS..004      1.000000   CNS..048     -1.000000
    x...1548  UC..1548      1.000000
    x...1549  CNS..004     -1.000000   CNS..169      1.000000
    x...1549  UC..1549      1.000000
    x...1550  CNS..004      1.000000   CNS..169     -1.000000
    x...1550  UC..1550      1.000000
    x...1551  CNS..014      1.000000   CNS..268     -1.000000
    x...1551  UC..1551      1.000000
    x...1552  CNS..003      1.000000   CNS..268     -1.000000
    x...1552  UC..1552      1.000000
    x...1553  CNS..031      1.000000   CNS..269     -1.000000
    x...1553  UC..1553      1.000000
    x...1554  CNS..107      1.000000   CNS..269     -1.000000
    x...1554  UC..1554      1.000000
    x...1555  CNS..046      1.000000   CNS..069     -1.000000
    x...1555  UC..1555      1.000000
    x...1556  CNS..046     -1.000000   CNS..069      1.000000
    x...1556  UC..1556      1.000000
    x...1557  CNS..081      1.000000   CNS..270     -1.000000
    x...1557  UC..1557      1.000000
    x...1558  CNS..069      1.000000   CNS..270     -1.000000
    x...1558  UC..1558      1.000000
    x...1559  CNS..059      1.000000   CNS..101     -1.000000
    x...1559  UC..1559      1.000000
    x...1560  CNS..059     -1.000000   CNS..101      1.000000
    x...1560  UC..1560      1.000000
    x...1561  CNS..074      1.000000   CNS..271     -1.000000
    x...1561  UC..1561      1.000000
    x...1562  CNS..027      1.000000   CNS..271     -1.000000
    x...1562  UC..1562      1.000000
    x...1563  CNS..002     -1.000000   CNS..007      1.000000
    x...1563  UC..1563      1.000000
    x...1564  CNS..002      1.000000   CNS..007     -1.000000
    x...1564  UC..1564      1.000000
    x...1565  CNS..007     -1.000000   CNS..351      1.000000
    x...1565  UC..1565      1.000000
    x...1566  CNS..020     -1.000000   CNS..351      1.000000
    x...1566  UC..1566      1.000000
    x...1567  CNS..150      1.000000   CNS..272     -1.000000
    x...1567  UC..1567      1.000000
    x...1568  CNS..250      1.000000   CNS..272     -1.000000
    x...1568  UC..1568      1.000000
    x...1569  CNS..125      1.000000   CNS..273     -1.000000
    x...1569  UC..1569      1.000000
    x...1570  CNS..273     -1.000000   CNS..361      1.000000
    x...1570  UC..1570      1.000000
    x...1571  CNS..015     -1.000000   CNS..491      1.000000
    x...1571  UC..1571      1.000000
    x...1572  CNS..057     -1.000000   CNS..491      1.000000
    x...1572  UC..1572      1.000000
    x...1573  CNS..044      1.000000   CNS..263     -1.000000
    x...1573  UC..1573      1.000000
    x...1574  CNS..044     -1.000000   CNS..263      1.000000
    x...1574  UC..1574      1.000000
    x...1575  CNS..180     -1.000000   CNS..236      1.000000
    x...1575  UC..1575      1.000000
    x...1576  CNS..180      1.000000   CNS..236     -1.000000
    x...1576  UC..1576      1.000000
    x...1577  CNS..086      1.000000   CNS..274     -1.000000
    x...1577  UC..1577      1.000000
    x...1578  CNS..098      1.000000   CNS..274     -1.000000
    x...1578  UC..1578      1.000000
    x...1579  CNS..020      1.000000   CNS..275     -1.000000
    x...1579  UC..1579      1.000000
    x...1580  CNS..001      1.000000   CNS..275     -1.000000
    x...1580  UC..1580      1.000000
    x...1581  CNS..075     -1.000000   CNS..299      1.000000
    x...1581  UC..1581      1.000000
    x...1582  CNS..272     -1.000000   CNS..299      1.000000
    x...1582  UC..1582      1.000000
    x...1583  CNS..010      1.000000   CNS..255     -1.000000
    x...1583  UC..1583      1.000000
    x...1584  CNS..010     -1.000000   CNS..255      1.000000
    x...1584  UC..1584      1.000000
    x...1585  CNS..007      1.000000   CNS..276     -1.000000
    x...1585  UC..1585      1.000000
    x...1586  CNS..022      1.000000   CNS..276     -1.000000
    x...1586  UC..1586      1.000000
    x...1587  CNS..017      1.000000   CNS..277     -1.000000
    x...1587  UC..1587      1.000000
    x...1588  CNS..018      1.000000   CNS..277     -1.000000
    x...1588  UC..1588      1.000000
    x...1589  CNS..015      1.000000   CNS..171     -1.000000
    x...1589  UC..1589      1.000000
    x...1590  CNS..015     -1.000000   CNS..171      1.000000
    x...1590  UC..1590      1.000000
    x...1591  CNS..179     -1.000000   CNS..269      1.000000
    x...1591  UC..1591      1.000000
    x...1592  CNS..179      1.000000   CNS..269     -1.000000
    x...1592  UC..1592      1.000000
    x...1593  CNS..010     -1.000000   CNS..264      1.000000
    x...1593  UC..1593      1.000000
    x...1594  CNS..010      1.000000   CNS..264     -1.000000
    x...1594  UC..1594      1.000000
    x...1595  CNS..150      1.000000   CNS..250     -1.000000
    x...1595  UC..1595      1.000000
    x...1596  CNS..150     -1.000000   CNS..250      1.000000
    x...1596  UC..1596      1.000000
    x...1597  CNS..278     -1.000000   CNS..334      1.000000
    x...1597  UC..1597      1.000000
    x...1598  CNS..099      1.000000   CNS..278     -1.000000
    x...1598  UC..1598      1.000000
    x...1599  CNS..004      1.000000   CNS..279     -1.000000
    x...1599  UC..1599      1.000000
    x...1600  CNS..279     -1.000000   CNS..286      1.000000
    x...1600  UC..1600      1.000000
    x...1601  CNS..008      1.000000   CNS..280     -1.000000
    x...1601  UC..1601      1.000000
    x...1602  CNS..090      1.000000   CNS..280     -1.000000
    x...1602  UC..1602      1.000000
    x...1603  CNS..118      1.000000   CNS..281     -1.000000
    x...1603  UC..1603      1.000000
    x...1604  CNS..033      1.000000   CNS..281     -1.000000
    x...1604  UC..1604      1.000000
    x...1605  CNS..217      1.000000   CNS..282     -1.000000
    x...1605  UC..1605      1.000000
    x...1606  CNS..050      1.000000   CNS..282     -1.000000
    x...1606  UC..1606      1.000000
    x...1607  CNS..005      1.000000   CNS..282     -1.000000
    x...1607  UC..1607      1.000000
    x...1608  CNS..005     -1.000000   CNS..282      1.000000
    x...1608  UC..1608      1.000000
    x...1609  CNS..206     -1.000000   CNS..410      1.000000
    x...1609  UC..1609      1.000000
    x...1610  CNS..099     -1.000000   CNS..410      1.000000
    x...1610  UC..1610      1.000000
    x...1611  CNS..218     -1.000000   CNS..275      1.000000
    x...1611  UC..1611      1.000000
    x...1612  CNS..218      1.000000   CNS..275     -1.000000
    x...1612  UC..1612      1.000000
    x...1613  CNS..137      1.000000   CNS..269     -1.000000
    x...1613  UC..1613      1.000000
    x...1614  CNS..137     -1.000000   CNS..269      1.000000
    x...1614  UC..1614      1.000000
    x...1615  CNS..270     -1.000000   CNS..434      1.000000
    x...1615  UC..1615      1.000000
    x...1616  CNS..041     -1.000000   CNS..371      1.000000
    x...1616  UC..1616      1.000000
    x...1617  CNS..023      1.000000   CNS..253     -1.000000
    x...1617  UC..1617      1.000000
    x...1618  CNS..023     -1.000000   CNS..253      1.000000
    x...1618  UC..1618      1.000000
    x...1619  CNS..050      1.000000   CNS..217     -1.000000
    x...1619  UC..1619      1.000000
    x...1620  CNS..050     -1.000000   CNS..217      1.000000
    x...1620  UC..1620      1.000000
    x...1621  CNS..039      1.000000   CNS..117     -1.000000
    x...1621  UC..1621      1.000000
    x...1622  CNS..039     -1.000000   CNS..117      1.000000
    x...1622  UC..1622      1.000000
    x...1623  CNS..075     -1.000000   CNS..336      1.000000
    x...1623  UC..1623      1.000000
    x...1624  CNS..047     -1.000000   CNS..336      1.000000
    x...1624  UC..1624      1.000000
    x...1625  CNS..042      1.000000   CNS..276     -1.000000
    x...1625  UC..1625      1.000000
    x...1626  CNS..042     -1.000000   CNS..276      1.000000
    x...1626  UC..1626      1.000000
    x...1627  CNS..283     -1.000000   CNS..326      1.000000
    x...1627  UC..1627      1.000000
    x...1628  CNS..004      1.000000   CNS..283     -1.000000
    x...1628  UC..1628      1.000000
    x...1629  CNS..035      1.000000   CNS..284     -1.000000
    x...1629  UC..1629      1.000000
    x...1630  CNS..011      1.000000   CNS..284     -1.000000
    x...1630  UC..1630      1.000000
    x...1631  CNS..017     -1.000000   CNS..018      1.000000
    x...1631  UC..1631      1.000000
    x...1632  CNS..017      1.000000   CNS..018     -1.000000
    x...1632  UC..1632      1.000000
    x...1633  CNS..207      1.000000   CNS..280     -1.000000
    x...1633  UC..1633      1.000000
    x...1634  CNS..207     -1.000000   CNS..280      1.000000
    x...1634  UC..1634      1.000000
    x...1635  CNS..069     -1.000000   CNS..081      1.000000
    x...1635  UC..1635      1.000000
    x...1636  CNS..069      1.000000   CNS..081     -1.000000
    x...1636  UC..1636      1.000000
    x...1637  CNS..285     -1.000000   CNS..313      1.000000
    x...1637  UC..1637      1.000000
    x...1638  CNS..144      1.000000   CNS..285     -1.000000
    x...1638  UC..1638      1.000000
    x...1639  CNS..279      1.000000   CNS..286     -1.000000
    x...1639  UC..1639      1.000000
    x...1640  CNS..067      1.000000   CNS..286     -1.000000
    x...1640  UC..1640      1.000000
    x...1641  CNS..099      1.000000   CNS..206     -1.000000
    x...1641  UC..1641      1.000000
    x...1642  CNS..099     -1.000000   CNS..206      1.000000
    x...1642  UC..1642      1.000000
    x...1643  CNS..275     -1.000000   CNS..307      1.000000
    x...1643  UC..1643      1.000000
    x...1644  CNS..275      1.000000   CNS..307     -1.000000
    x...1644  UC..1644      1.000000
    x...1645  CNS..034     -1.000000   CNS..348      1.000000
    x...1645  UC..1645      1.000000
    x...1646  CNS..271     -1.000000   CNS..348      1.000000
    x...1646  UC..1646      1.000000
    x...1647  CNS..004      1.000000   CNS..286     -1.000000
    x...1647  UC..1647      1.000000
    x...1648  CNS..004     -1.000000   CNS..286      1.000000
    x...1648  UC..1648      1.000000
    x...1649  CNS..047      1.000000   CNS..287     -1.000000
    x...1649  UC..1649      1.000000
    x...1650  CNS..287     -1.000000   CNS..385      1.000000
    x...1650  UC..1650      1.000000
    x...1651  CNS..008      1.000000   CNS..255     -1.000000
    x...1651  UC..1651      1.000000
    x...1652  CNS..008     -1.000000   CNS..255      1.000000
    x...1652  UC..1652      1.000000
    x...1653  CNS..220      1.000000   CNS..288     -1.000000
    x...1653  UC..1653      1.000000
    x...1654  CNS..003      1.000000   CNS..288     -1.000000
    x...1654  UC..1654      1.000000
    x...1655  CNS..125      1.000000   CNS..152     -1.000000
    x...1655  UC..1655      1.000000
    x...1656  CNS..125     -1.000000   CNS..152      1.000000
    x...1656  UC..1656      1.000000
    x...1657  CNS..004      1.000000   CNS..289     -1.000000
    x...1657  UC..1657      1.000000
    x...1658  CNS..091      1.000000   CNS..289     -1.000000
    x...1658  UC..1658      1.000000
    x...1659  CNS..018     -1.000000   CNS..273      1.000000
    x...1659  UC..1659      1.000000
    x...1660  CNS..018      1.000000   CNS..273     -1.000000
    x...1660  UC..1660      1.000000
    x...1661  CNS..003      1.000000   CNS..290     -1.000000
    x...1661  UC..1661      1.000000
    x...1662  CNS..290     -1.000000   CNS..300      1.000000
    x...1662  UC..1662      1.000000
    x...1663  CNS..020      1.000000   CNS..276     -1.000000
    x...1663  UC..1663      1.000000
    x...1664  CNS..020     -1.000000   CNS..276      1.000000
    x...1664  UC..1664      1.000000
    x...1665  CNS..017     -1.000000   CNS..284      1.000000
    x...1665  UC..1665      1.000000
    x...1666  CNS..017      1.000000   CNS..284     -1.000000
    x...1666  UC..1666      1.000000
    x...1667  CNS..003     -1.000000   CNS..500      1.000000
    x...1667  UC..1667      1.000000
    x...1668  CNS..014     -1.000000   CNS..500      1.000000
    x...1668  UC..1668      1.000000
    x...1669  CNS..103     -1.000000   CNS..274      1.000000
    x...1669  UC..1669      1.000000
    x...1670  CNS..103      1.000000   CNS..274     -1.000000
    x...1670  UC..1670      1.000000
    x...1671  CNS..086      1.000000   CNS..291     -1.000000
    x...1671  UC..1671      1.000000
    x...1672  CNS..098      1.000000   CNS..291     -1.000000
    x...1672  UC..1672      1.000000
    x...1673  CNS..092      1.000000   CNS..292     -1.000000
    x...1673  UC..1673      1.000000
    x...1674  CNS..221      1.000000   CNS..292     -1.000000
    x...1674  UC..1674      1.000000
    x...1675  CNS..001      1.000000   CNS..293     -1.000000
    x...1675  UC..1675      1.000000
    x...1676  CNS..068      1.000000   CNS..293     -1.000000
    x...1676  UC..1676      1.000000
    x...1677  CNS..181     -1.000000   CNS..315      1.000000
    x...1677  UC..1677      1.000000
    x...1678  CNS..268     -1.000000   CNS..315      1.000000
    x...1678  UC..1678      1.000000
    x...1679  CNS..093     -1.000000   CNS..350      1.000000
    x...1679  UC..1679      1.000000
    x...1680  CNS..047     -1.000000   CNS..350      1.000000
    x...1680  UC..1680      1.000000
    x...1681  CNS..231      1.000000   CNS..284     -1.000000
    x...1681  UC..1681      1.000000
    x...1682  CNS..231     -1.000000   CNS..284      1.000000
    x...1682  UC..1682      1.000000
    x...1683  CNS..123      1.000000   CNS..289     -1.000000
    x...1683  UC..1683      1.000000
    x...1684  CNS..123     -1.000000   CNS..289      1.000000
    x...1684  UC..1684      1.000000
    x...1685  CNS..259     -1.000000   CNS..344      1.000000
    x...1685  UC..1685      1.000000
    x...1686  CNS..271     -1.000000   CNS..344      1.000000
    x...1686  UC..1686      1.000000
    x...1687  CNS..177      1.000000   CNS..294     -1.000000
    x...1687  UC..1687      1.000000
    x...1688  CNS..294     -1.000000   CNS..320      1.000000
    x...1688  UC..1688      1.000000
    x...1689  CNS..034     -1.000000   CNS..285      1.000000
    x...1689  UC..1689      1.000000
    x...1690  CNS..034      1.000000   CNS..285     -1.000000
    x...1690  UC..1690      1.000000
    x...1691  CNS..004     -1.000000   CNS..067      1.000000
    x...1691  UC..1691      1.000000
    x...1692  CNS..004      1.000000   CNS..067     -1.000000
    x...1692  UC..1692      1.000000
    x...1693  CNS..003     -1.000000   CNS..220      1.000000
    x...1693  UC..1693      1.000000
    x...1694  CNS..003      1.000000   CNS..220     -1.000000
    x...1694  UC..1694      1.000000
    x...1695  CNS..090      1.000000   CNS..241     -1.000000
    x...1695  UC..1695      1.000000
    x...1696  CNS..090     -1.000000   CNS..241      1.000000
    x...1696  UC..1696      1.000000
    x...1697  CNS..041      1.000000   CNS..295     -1.000000
    x...1697  UC..1697      1.000000
    x...1698  CNS..109      1.000000   CNS..295     -1.000000
    x...1698  UC..1698      1.000000
    x...1699  CNS..078      1.000000   CNS..296     -1.000000
    x...1699  UC..1699      1.000000
    x...1700  CNS..047      1.000000   CNS..296     -1.000000
    x...1700  UC..1700      1.000000
    x...1701  CNS..037     -1.000000   CNS..339      1.000000
    x...1701  UC..1701      1.000000
    x...1702  CNS..004     -1.000000   CNS..333      1.000000
    x...1702  UC..1702      1.000000
    x...1703  CNS..177     -1.000000   CNS..203      1.000000
    x...1703  UC..1703      1.000000
    x...1704  CNS..177      1.000000   CNS..203     -1.000000
    x...1704  UC..1704      1.000000
    x...1705  CNS..003      1.000000   CNS..297     -1.000000
    x...1705  UC..1705      1.000000
    x...1706  CNS..190      1.000000   CNS..297     -1.000000
    x...1706  UC..1706      1.000000
    x...1707  CNS..011     -1.000000   CNS..304      1.000000
    x...1707  UC..1707      1.000000
    x...1708  CNS..295     -1.000000   CNS..304      1.000000
    x...1708  UC..1708      1.000000
    x...1709  CNS..001      1.000000   CNS..292     -1.000000
    x...1709  UC..1709      1.000000
    x...1710  CNS..001     -1.000000   CNS..292      1.000000
    x...1710  UC..1710      1.000000
    x...1711  CNS..246      1.000000   CNS..298     -1.000000
    x...1711  UC..1711      1.000000
    x...1712  CNS..188      1.000000   CNS..298     -1.000000
    x...1712  UC..1712      1.000000
    x...1713  CNS..272      1.000000   CNS..299     -1.000000
    x...1713  UC..1713      1.000000
    x...1714  CNS..075      1.000000   CNS..299     -1.000000
    x...1714  UC..1714      1.000000
    x...1715  CNS..047     -1.000000   CNS..093      1.000000
    x...1715  UC..1715      1.000000
    x...1716  CNS..047      1.000000   CNS..093     -1.000000
    x...1716  UC..1716      1.000000
    x...1717  CNS..290      1.000000   CNS..300     -1.000000
    x...1717  UC..1717      1.000000
    x...1718  CNS..115      1.000000   CNS..300     -1.000000
    x...1718  UC..1718      1.000000
    x...1719  CNS..294     -1.000000   CNS..427      1.000000
    x...1719  UC..1719      1.000000
    x...1720  CNS..294      1.000000   CNS..427     -1.000000
    x...1720  UC..1720      1.000000
    x...1721  CNS..086      1.000000   CNS..098     -1.000000
    x...1721  UC..1721      1.000000
    x...1722  CNS..086     -1.000000   CNS..098      1.000000
    x...1722  UC..1722      1.000000
    x...1723  CNS..084      1.000000   CNS..285     -1.000000
    x...1723  UC..1723      1.000000
    x...1724  CNS..084     -1.000000   CNS..285      1.000000
    x...1724  UC..1724      1.000000
    x...1725  CNS..250     -1.000000   CNS..299      1.000000
    x...1725  UC..1725      1.000000
    x...1726  CNS..250      1.000000   CNS..299     -1.000000
    x...1726  UC..1726      1.000000
    x...1727  CNS..069      1.000000   CNS..301     -1.000000
    x...1727  UC..1727      1.000000
    x...1728  CNS..008      1.000000   CNS..301     -1.000000
    x...1728  UC..1728      1.000000
    x...1729  CNS..003     -1.000000   CNS..115      1.000000
    x...1729  UC..1729      1.000000
    x...1730  CNS..003      1.000000   CNS..115     -1.000000
    x...1730  UC..1730      1.000000
    x...1731  CNS..015      1.000000   CNS..283     -1.000000
    x...1731  UC..1731      1.000000
    x...1732  CNS..015     -1.000000   CNS..283      1.000000
    x...1732  UC..1732      1.000000
    x...1733  CNS..302     -1.000000   CNS..495      1.000000
    x...1733  UC..1733      1.000000
    x...1734  CNS..302     -1.000000   CNS..334      1.000000
    x...1734  UC..1734      1.000000
    x...1735  CNS..003      1.000000   CNS..300     -1.000000
    x...1735  UC..1735      1.000000
    x...1736  CNS..003     -1.000000   CNS..300      1.000000
    x...1736  UC..1736      1.000000
    x...1737  CNS..015     -1.000000   CNS..267      1.000000
    x...1737  UC..1737      1.000000
    x...1738  CNS..015      1.000000   CNS..267     -1.000000
    x...1738  UC..1738      1.000000
    x...1739  CNS..099     -1.000000   CNS..302      1.000000
    x...1739  UC..1739      1.000000
    x...1740  CNS..099      1.000000   CNS..302     -1.000000
    x...1740  UC..1740      1.000000
    x...1741  CNS..008     -1.000000   CNS..288      1.000000
    x...1741  UC..1741      1.000000
    x...1742  CNS..008      1.000000   CNS..288     -1.000000
    x...1742  UC..1742      1.000000
    x...1743  CNS..011      1.000000   CNS..280     -1.000000
    x...1743  UC..1743      1.000000
    x...1744  CNS..011     -1.000000   CNS..280      1.000000
    x...1744  UC..1744      1.000000
    x...1745  CNS..058      1.000000   CNS..297     -1.000000
    x...1745  UC..1745      1.000000
    x...1746  CNS..058     -1.000000   CNS..297      1.000000
    x...1746  UC..1746      1.000000
    x...1747  CNS..132      1.000000   CNS..303     -1.000000
    x...1747  UC..1747      1.000000
    x...1748  CNS..088      1.000000   CNS..303     -1.000000
    x...1748  UC..1748      1.000000
    x...1749  CNS..300     -1.000000   CNS..473      1.000000
    x...1749  UC..1749      1.000000
    x...1750  CNS..300      1.000000   CNS..473     -1.000000
    x...1750  UC..1750      1.000000
    x...1751  CNS..266     -1.000000   CNS..283      1.000000
    x...1751  UC..1751      1.000000
    x...1752  CNS..266      1.000000   CNS..283     -1.000000
    x...1752  UC..1752      1.000000
    x...1753  CNS..001     -1.000000   CNS..068      1.000000
    x...1753  UC..1753      1.000000
    x...1754  CNS..001      1.000000   CNS..068     -1.000000
    x...1754  UC..1754      1.000000
    x...1755  CNS..008     -1.000000   CNS..069      1.000000
    x...1755  UC..1755      1.000000
    x...1756  CNS..008      1.000000   CNS..069     -1.000000
    x...1756  UC..1756      1.000000
    x...1757  CNS..295      1.000000   CNS..304     -1.000000
    x...1757  UC..1757      1.000000
    x...1758  CNS..011      1.000000   CNS..304     -1.000000
    x...1758  UC..1758      1.000000
    x...1759  CNS..041     -1.000000   CNS..304      1.000000
    x...1759  UC..1759      1.000000
    x...1760  CNS..041      1.000000   CNS..304     -1.000000
    x...1760  UC..1760      1.000000
    x...1761  CNS..007     -1.000000   CNS..292      1.000000
    x...1761  UC..1761      1.000000
    x...1762  CNS..007      1.000000   CNS..292     -1.000000
    x...1762  UC..1762      1.000000
    x...1763  CNS..006      1.000000   CNS..281     -1.000000
    x...1763  UC..1763      1.000000
    x...1764  CNS..006     -1.000000   CNS..281      1.000000
    x...1764  UC..1764      1.000000
    x...1765  CNS..093     -1.000000   CNS..296      1.000000
    x...1765  UC..1765      1.000000
    x...1766  CNS..093      1.000000   CNS..296     -1.000000
    x...1766  UC..1766      1.000000
    x...1767  CNS..111      1.000000   CNS..274     -1.000000
    x...1767  UC..1767      1.000000
    x...1768  CNS..111     -1.000000   CNS..274      1.000000
    x...1768  UC..1768      1.000000
    x...1769  CNS..178     -1.000000   CNS..261      1.000000
    x...1769  UC..1769      1.000000
    x...1770  CNS..178      1.000000   CNS..261     -1.000000
    x...1770  UC..1770      1.000000
    x...1771  CNS..111     -1.000000   CNS..332      1.000000
    x...1771  UC..1771      1.000000
    x...1772  CNS..291     -1.000000   CNS..332      1.000000
    x...1772  UC..1772      1.000000
    x...1773  CNS..305     -1.000000   CNS..361      1.000000
    x...1773  UC..1773      1.000000
    x...1774  CNS..305     -1.000000   CNS..356      1.000000
    x...1774  UC..1774      1.000000
    x...1775  CNS..290     -1.000000   CNS..473      1.000000
    x...1775  UC..1775      1.000000
    x...1776  CNS..290      1.000000   CNS..473     -1.000000
    x...1776  UC..1776      1.000000
    x...1777  CNS..163     -1.000000   CNS..295      1.000000
    x...1777  UC..1777      1.000000
    x...1778  CNS..163      1.000000   CNS..295     -1.000000
    x...1778  UC..1778      1.000000
    x...1779  CNS..190      1.000000   CNS..306     -1.000000
    x...1779  UC..1779      1.000000
    x...1780  CNS..306     -1.000000   CNS..311      1.000000
    x...1780  UC..1780      1.000000
    x...1781  CNS..005      1.000000   CNS..303     -1.000000
    x...1781  UC..1781      1.000000
    x...1782  CNS..005     -1.000000   CNS..303      1.000000
    x...1782  UC..1782      1.000000
    x...1783  CNS..011     -1.000000   CNS..295      1.000000
    x...1783  UC..1783      1.000000
    x...1784  CNS..011      1.000000   CNS..295     -1.000000
    x...1784  UC..1784      1.000000
    x...1785  CNS..088      1.000000   CNS..132     -1.000000
    x...1785  UC..1785      1.000000
    x...1786  CNS..088     -1.000000   CNS..132      1.000000
    x...1786  UC..1786      1.000000
    x...1787  CNS..004     -1.000000   CNS..037      1.000000
    x...1787  UC..1787      1.000000
    x...1788  CNS..004      1.000000   CNS..037     -1.000000
    x...1788  UC..1788      1.000000
    x...1789  CNS..067      1.000000   CNS..279     -1.000000
    x...1789  UC..1789      1.000000
    x...1790  CNS..067     -1.000000   CNS..279      1.000000
    x...1790  UC..1790      1.000000
    x...1791  CNS..029      1.000000   CNS..307     -1.000000
    x...1791  UC..1791      1.000000
    x...1792  CNS..001      1.000000   CNS..307     -1.000000
    x...1792  UC..1792      1.000000
    x...1793  CNS..126      1.000000   CNS..308     -1.000000
    x...1793  UC..1793      1.000000
    x...1794  CNS..061      1.000000   CNS..308     -1.000000
    x...1794  UC..1794      1.000000
    x...1795  CNS..004      1.000000   CNS..309     -1.000000
    x...1795  UC..1795      1.000000
    x...1796  CNS..266      1.000000   CNS..309     -1.000000
    x...1796  UC..1796      1.000000
    x...1797  CNS..095      1.000000   CNS..310     -1.000000
    x...1797  UC..1797      1.000000
    x...1798  CNS..073      1.000000   CNS..310     -1.000000
    x...1798  UC..1798      1.000000
    x...1799  CNS..004      1.000000   CNS..266     -1.000000
    x...1799  UC..1799      1.000000
    x...1800  CNS..004     -1.000000   CNS..266      1.000000
    x...1800  UC..1800      1.000000
    x...1801  CNS..306      1.000000   CNS..311     -1.000000
    x...1801  UC..1801      1.000000
    x...1802  CNS..113      1.000000   CNS..311     -1.000000
    x...1802  UC..1802      1.000000
    x...1803  CNS..004     -1.000000   CNS..091      1.000000
    x...1803  UC..1803      1.000000
    x...1804  CNS..004      1.000000   CNS..091     -1.000000
    x...1804  UC..1804      1.000000
    x...1805  CNS..152      1.000000   CNS..273     -1.000000
    x...1805  UC..1805      1.000000
    x...1806  CNS..152     -1.000000   CNS..273      1.000000
    x...1806  UC..1806      1.000000
    x...1807  CNS..001     -1.000000   CNS..321      1.000000
    x...1807  UC..1807      1.000000
    x...1808  CNS..298     -1.000000   CNS..321      1.000000
    x...1808  UC..1808      1.000000
    x...1809  CNS..179     -1.000000   CNS..277      1.000000
    x...1809  UC..1809      1.000000
    x...1810  CNS..179      1.000000   CNS..277     -1.000000
    x...1810  UC..1810      1.000000
    x...1811  CNS..020     -1.000000   CNS..478      1.000000
    x...1811  UC..1811      1.000000
    x...1812  CNS..307     -1.000000   CNS..478      1.000000
    x...1812  UC..1812      1.000000
    x...1813  CNS..004      1.000000   CNS..312     -1.000000
    x...1813  UC..1813      1.000000
    x...1814  CNS..013      1.000000   CNS..312     -1.000000
    x...1814  UC..1814      1.000000
    x...1815  CNS..033     -1.000000   CNS..354      1.000000
    x...1815  UC..1815      1.000000
    x...1816  CNS..118     -1.000000   CNS..354      1.000000
    x...1816  UC..1816      1.000000
    x...1817  CNS..172      1.000000   CNS..296     -1.000000
    x...1817  UC..1817      1.000000
    x...1818  CNS..172     -1.000000   CNS..296      1.000000
    x...1818  UC..1818      1.000000
    x...1819  CNS..125     -1.000000   CNS..305      1.000000
    x...1819  UC..1819      1.000000
    x...1820  CNS..125      1.000000   CNS..305     -1.000000
    x...1820  UC..1820      1.000000
    x...1821  CNS..278      1.000000   CNS..410     -1.000000
    x...1821  UC..1821      1.000000
    x...1822  CNS..278     -1.000000   CNS..410      1.000000
    x...1822  UC..1822      1.000000
    x...1823  CNS..005      1.000000   CNS..313     -1.000000
    x...1823  UC..1823      1.000000
    x...1824  CNS..285      1.000000   CNS..313     -1.000000
    x...1824  UC..1824      1.000000
    x...1825  CNS..061      1.000000   CNS..126     -1.000000
    x...1825  UC..1825      1.000000
    x...1826  CNS..061     -1.000000   CNS..126      1.000000
    x...1826  UC..1826      1.000000
    x...1827  CNS..005     -1.000000   CNS..285      1.000000
    x...1827  UC..1827      1.000000
    x...1828  CNS..005      1.000000   CNS..285     -1.000000
    x...1828  UC..1828      1.000000
    x...1829  CNS..009      1.000000   CNS..312     -1.000000
    x...1829  UC..1829      1.000000
    x...1830  CNS..009     -1.000000   CNS..312      1.000000
    x...1830  UC..1830      1.000000
    x...1831  CNS..010      1.000000   CNS..301     -1.000000
    x...1831  UC..1831      1.000000
    x...1832  CNS..010     -1.000000   CNS..301      1.000000
    x...1832  UC..1832      1.000000
    x...1833  CNS..312     -1.000000   CNS..388      1.000000
    x...1833  UC..1833      1.000000
    x...1834  CNS..162     -1.000000   CNS..486      1.000000
    x...1834  UC..1834      1.000000
    x...1835  CNS..059     -1.000000   CNS..293      1.000000
    x...1835  UC..1835      1.000000
    x...1836  CNS..059      1.000000   CNS..293     -1.000000
    x...1836  UC..1836      1.000000
    x...1837  CNS..108      1.000000   CNS..314     -1.000000
    x...1837  UC..1837      1.000000
    x...1838  CNS..128      1.000000   CNS..314     -1.000000
    x...1838  UC..1838      1.000000
    x...1839  CNS..268      1.000000   CNS..315     -1.000000
    x...1839  UC..1839      1.000000
    x...1840  CNS..181      1.000000   CNS..315     -1.000000
    x...1840  UC..1840      1.000000
    x...1841  CNS..008      1.000000   CNS..316     -1.000000
    x...1841  UC..1841      1.000000
    x...1842  CNS..056      1.000000   CNS..316     -1.000000
    x...1842  UC..1842      1.000000
    x...1843  CNS..005      1.000000   CNS..317     -1.000000
    x...1843  UC..1843      1.000000
    x...1844  CNS..317     -1.000000   CNS..435      1.000000
    x...1844  UC..1844      1.000000
    x...1845  CNS..283      1.000000   CNS..309     -1.000000
    x...1845  UC..1845      1.000000
    x...1846  CNS..283     -1.000000   CNS..309      1.000000
    x...1846  UC..1846      1.000000
    x...1847  CNS..190     -1.000000   CNS..342      1.000000
    x...1847  UC..1847      1.000000
    x...1848  CNS..113     -1.000000   CNS..342      1.000000
    x...1848  UC..1848      1.000000
    x...1849  CNS..026      1.000000   CNS..314     -1.000000
    x...1849  UC..1849      1.000000
    x...1850  CNS..026     -1.000000   CNS..314      1.000000
    x...1850  UC..1850      1.000000
    x...1851  CNS..190     -1.000000   CNS..311      1.000000
    x...1851  UC..1851      1.000000
    x...1852  CNS..190      1.000000   CNS..311     -1.000000
    x...1852  UC..1852      1.000000
    x...1853  CNS..014     -1.000000   CNS..315      1.000000
    x...1853  UC..1853      1.000000
    x...1854  CNS..014      1.000000   CNS..315     -1.000000
    x...1854  UC..1854      1.000000
    x...1855  CNS..168     -1.000000   CNS..266      1.000000
    x...1855  UC..1855      1.000000
    x...1856  CNS..168      1.000000   CNS..266     -1.000000
    x...1856  UC..1856      1.000000
    x...1857  CNS..011      1.000000   CNS..318     -1.000000
    x...1857  UC..1857      1.000000
    x...1858  CNS..010      1.000000   CNS..318     -1.000000
    x...1858  UC..1858      1.000000
    x...1859  CNS..080      1.000000   CNS..319     -1.000000
    x...1859  UC..1859      1.000000
    x...1860  CNS..039      1.000000   CNS..319     -1.000000
    x...1860  UC..1860      1.000000
    x...1861  CNS..039      1.000000   CNS..080     -1.000000
    x...1861  UC..1861      1.000000
    x...1862  CNS..039     -1.000000   CNS..080      1.000000
    x...1862  UC..1862      1.000000
    x...1863  CNS..294      1.000000   CNS..320     -1.000000
    x...1863  UC..1863      1.000000
    x...1864  CNS..203      1.000000   CNS..320     -1.000000
    x...1864  UC..1864      1.000000
    x...1865  CNS..003     -1.000000   CNS..005      1.000000
    x...1865  UC..1865      1.000000
    x...1866  CNS..003      1.000000   CNS..005     -1.000000
    x...1866  UC..1866      1.000000
    x...1867  CNS..298      1.000000   CNS..321     -1.000000
    x...1867  UC..1867      1.000000
    x...1868  CNS..001      1.000000   CNS..321     -1.000000
    x...1868  UC..1868      1.000000
    x...1869  CNS..123     -1.000000   CNS..279      1.000000
    x...1869  UC..1869      1.000000
    x...1870  CNS..123      1.000000   CNS..279     -1.000000
    x...1870  UC..1870      1.000000
    x...1871  CNS..126     -1.000000   CNS..494      1.000000
    x...1871  UC..1871      1.000000
    x...1872  CNS..061     -1.000000   CNS..494      1.000000
    x...1872  UC..1872      1.000000
    x...1873  CNS..214      1.000000   CNS..322     -1.000000
    x...1873  UC..1873      1.000000
    x...1874  CNS..196      1.000000   CNS..322     -1.000000
    x...1874  UC..1874      1.000000
    x...1875  CNS..140      1.000000   CNS..323     -1.000000
    x...1875  UC..1875      1.000000
    x...1876  CNS..121      1.000000   CNS..323     -1.000000
    x...1876  UC..1876      1.000000
    x...1877  CNS..003      1.000000   CNS..315     -1.000000
    x...1877  UC..1877      1.000000
    x...1878  CNS..003     -1.000000   CNS..315      1.000000
    x...1878  UC..1878      1.000000
    x...1879  CNS..001      1.000000   CNS..298     -1.000000
    x...1879  UC..1879      1.000000
    x...1880  CNS..001     -1.000000   CNS..298      1.000000
    x...1880  UC..1880      1.000000
    x...1881  CNS..298     -1.000000   CNS..487      1.000000
    x...1881  UC..1881      1.000000
    x...1882  CNS..001     -1.000000   CNS..487      1.000000
    x...1882  UC..1882      1.000000
    x...1883  CNS..238      1.000000   CNS..324     -1.000000
    x...1883  UC..1883      1.000000
    x...1884  CNS..050      1.000000   CNS..324     -1.000000
    x...1884  UC..1884      1.000000
    x...1885  CNS..002     -1.000000   CNS..307      1.000000
    x...1885  UC..1885      1.000000
    x...1886  CNS..002      1.000000   CNS..307     -1.000000
    x...1886  UC..1886      1.000000
    x...1887  CNS..075      1.000000   CNS..272     -1.000000
    x...1887  UC..1887      1.000000
    x...1888  CNS..075     -1.000000   CNS..272      1.000000
    x...1888  UC..1888      1.000000
    x...1889  CNS..064      1.000000   CNS..324     -1.000000
    x...1889  UC..1889      1.000000
    x...1890  CNS..064     -1.000000   CNS..324      1.000000
    x...1890  UC..1890      1.000000
    x...1891  CNS..010     -1.000000   CNS..011      1.000000
    x...1891  UC..1891      1.000000
    x...1892  CNS..010      1.000000   CNS..011     -1.000000
    x...1892  UC..1892      1.000000
    x...1893  CNS..203      1.000000   CNS..294     -1.000000
    x...1893  UC..1893      1.000000
    x...1894  CNS..203     -1.000000   CNS..294      1.000000
    x...1894  UC..1894      1.000000
    x...1895  CNS..042      1.000000   CNS..325     -1.000000
    x...1895  UC..1895      1.000000
    x...1896  CNS..092      1.000000   CNS..325     -1.000000
    x...1896  UC..1896      1.000000
    x...1897  CNS..168      1.000000   CNS..326     -1.000000
    x...1897  UC..1897      1.000000
    x...1898  CNS..283      1.000000   CNS..326     -1.000000
    x...1898  UC..1898      1.000000
    x...1899  CNS..027     -1.000000   CNS..362      1.000000
    x...1899  UC..1899      1.000000
    x...1900  CNS..310     -1.000000   CNS..362      1.000000
    x...1900  UC..1900      1.000000
    x...1901  CNS..097      1.000000   CNS..327     -1.000000
    x...1901  UC..1901      1.000000
    x...1902  CNS..252      1.000000   CNS..327     -1.000000
    x...1902  UC..1902      1.000000
    x...1903  CNS..214      1.000000   CNS..328     -1.000000
    x...1903  UC..1903      1.000000
    x...1904  CNS..196      1.000000   CNS..328     -1.000000
    x...1904  UC..1904      1.000000
    x...1905  CNS..015     -1.000000   CNS..326      1.000000
    x...1905  UC..1905      1.000000
    x...1906  CNS..015      1.000000   CNS..326     -1.000000
    x...1906  UC..1906      1.000000
    x...1907  CNS..041      1.000000   CNS..329     -1.000000
    x...1907  UC..1907      1.000000
    x...1908  CNS..245      1.000000   CNS..329     -1.000000
    x...1908  UC..1908      1.000000
    x...1909  CNS..266     -1.000000   CNS..326      1.000000
    x...1909  UC..1909      1.000000
    x...1910  CNS..266      1.000000   CNS..326     -1.000000
    x...1910  UC..1910      1.000000
    x...1911  CNS..235      1.000000   CNS..329     -1.000000
    x...1911  UC..1911      1.000000
    x...1912  CNS..235     -1.000000   CNS..329      1.000000
    x...1912  UC..1912      1.000000
    x...1913  CNS..051      1.000000   CNS..330     -1.000000
    x...1913  UC..1913      1.000000
    x...1914  CNS..330     -1.000000   CNS..357      1.000000
    x...1914  UC..1914      1.000000
    x...1915  CNS..008     -1.000000   CNS..425      1.000000
    x...1915  UC..1915      1.000000
    x...1916  CNS..056     -1.000000   CNS..425      1.000000
    x...1916  UC..1916      1.000000
    x...1917  CNS..104      1.000000   CNS..323     -1.000000
    x...1917  UC..1917      1.000000
    x...1918  CNS..104     -1.000000   CNS..323      1.000000
    x...1918  UC..1918      1.000000
    x...1919  CNS..006      1.000000   CNS..331     -1.000000
    x...1919  UC..1919      1.000000
    x...1920  CNS..153      1.000000   CNS..331     -1.000000
    x...1920  UC..1920      1.000000
    x...1921  CNS..196     -1.000000   CNS..214      1.000000
    x...1921  UC..1921      1.000000
    x...1922  CNS..196      1.000000   CNS..214     -1.000000
    x...1922  UC..1922      1.000000
    x...1923  CNS..042     -1.000000   CNS..430      1.000000
    x...1923  UC..1923      1.000000
    x...1924  CNS..092     -1.000000   CNS..430      1.000000
    x...1924  UC..1924      1.000000
    x...1925  CNS..001      1.000000   CNS..325     -1.000000
    x...1925  UC..1925      1.000000
    x...1926  CNS..001     -1.000000   CNS..325      1.000000
    x...1926  UC..1926      1.000000
    x...1927  CNS..018      1.000000   CNS..316     -1.000000
    x...1927  UC..1927      1.000000
    x...1928  CNS..018     -1.000000   CNS..316      1.000000
    x...1928  UC..1928      1.000000
    x...1929  CNS..229     -1.000000   CNS..328      1.000000
    x...1929  UC..1929      1.000000
    x...1930  CNS..229      1.000000   CNS..328     -1.000000
    x...1930  UC..1930      1.000000
    x...1931  CNS..291      1.000000   CNS..332     -1.000000
    x...1931  UC..1931      1.000000
    x...1932  CNS..111      1.000000   CNS..332     -1.000000
    x...1932  UC..1932      1.000000
    x...1933  CNS..004      1.000000   CNS..333     -1.000000
    x...1933  UC..1933      1.000000
    x...1934  CNS..333     -1.000000   CNS..339      1.000000
    x...1934  UC..1934      1.000000
    x...1935  CNS..024     -1.000000   CNS..373      1.000000
    x...1935  UC..1935      1.000000
    x...1936  CNS..330     -1.000000   CNS..373      1.000000
    x...1936  UC..1936      1.000000
    x...1937  CNS..302      1.000000   CNS..334     -1.000000
    x...1937  UC..1937      1.000000
    x...1938  CNS..278      1.000000   CNS..334     -1.000000
    x...1938  UC..1938      1.000000
    x...1939  CNS..238     -1.000000   CNS..413      1.000000
    x...1939  UC..1939      1.000000
    x...1940  CNS..050     -1.000000   CNS..413      1.000000
    x...1940  UC..1940      1.000000
    x...1941  CNS..113     -1.000000   CNS..306      1.000000
    x...1941  UC..1941      1.000000
    x...1942  CNS..113      1.000000   CNS..306     -1.000000
    x...1942  UC..1942      1.000000
    x...1943  CNS..169     -1.000000   CNS..333      1.000000
    x...1943  UC..1943      1.000000
    x...1944  CNS..169      1.000000   CNS..333     -1.000000
    x...1944  UC..1944      1.000000
    x...1945  CNS..034      1.000000   CNS..313     -1.000000
    x...1945  UC..1945      1.000000
    x...1946  CNS..034     -1.000000   CNS..313      1.000000
    x...1946  UC..1946      1.000000
    x...1947  CNS..127      1.000000   CNS..335     -1.000000
    x...1947  UC..1947      1.000000
    x...1948  CNS..014      1.000000   CNS..335     -1.000000
    x...1948  UC..1948      1.000000
    x...1949  CNS..108      1.000000   CNS..128     -1.000000
    x...1949  UC..1949      1.000000
    x...1950  CNS..108     -1.000000   CNS..128      1.000000
    x...1950  UC..1950      1.000000
    x...1951  CNS..047      1.000000   CNS..336     -1.000000
    x...1951  UC..1951      1.000000
    x...1952  CNS..075      1.000000   CNS..336     -1.000000
    x...1952  UC..1952      1.000000
    x...1953  CNS..229      1.000000   CNS..322     -1.000000
    x...1953  UC..1953      1.000000
    x...1954  CNS..229     -1.000000   CNS..322      1.000000
    x...1954  UC..1954      1.000000
    x...1955  CNS..141      1.000000   CNS..337     -1.000000
    x...1955  UC..1955      1.000000
    x...1956  CNS..001      1.000000   CNS..337     -1.000000
    x...1956  UC..1956      1.000000
    x...1957  CNS..265      1.000000   CNS..333     -1.000000
    x...1957  UC..1957      1.000000
    x...1958  CNS..265     -1.000000   CNS..333      1.000000
    x...1958  UC..1958      1.000000
    x...1959  CNS..006      1.000000   CNS..317     -1.000000
    x...1959  UC..1959      1.000000
    x...1960  CNS..006     -1.000000   CNS..317      1.000000
    x...1960  UC..1960      1.000000
    x...1961  CNS..047     -1.000000   CNS..075      1.000000
    x...1961  UC..1961      1.000000
    x...1962  CNS..047      1.000000   CNS..075     -1.000000
    x...1962  UC..1962      1.000000
    x...1963  CNS..011     -1.000000   CNS..331      1.000000
    x...1963  UC..1963      1.000000
    x...1964  CNS..011      1.000000   CNS..331     -1.000000
    x...1964  UC..1964      1.000000
    x...1965  CNS..338     -1.000000   CNS..343      1.000000
    x...1965  UC..1965      1.000000
    x...1966  CNS..024      1.000000   CNS..338     -1.000000
    x...1966  UC..1966      1.000000
    x...1967  CNS..002      1.000000   CNS..338     -1.000000
    x...1967  UC..1967      1.000000
    x...1968  CNS..002     -1.000000   CNS..338      1.000000
    x...1968  UC..1968      1.000000
    x...1969  CNS..001     -1.000000   CNS..330      1.000000
    x...1969  UC..1969      1.000000
    x...1970  CNS..001      1.000000   CNS..330     -1.000000
    x...1970  UC..1970      1.000000
    x...1971  CNS..333      1.000000   CNS..339     -1.000000
    x...1971  UC..1971      1.000000
    x...1972  CNS..037      1.000000   CNS..339     -1.000000
    x...1972  UC..1972      1.000000
    x...1973  CNS..041     -1.000000   CNS..245      1.000000
    x...1973  UC..1973      1.000000
    x...1974  CNS..041      1.000000   CNS..245     -1.000000
    x...1974  UC..1974      1.000000
    x...1975  CNS..149     -1.000000   CNS..335      1.000000
    x...1975  UC..1975      1.000000
    x...1976  CNS..149      1.000000   CNS..335     -1.000000
    x...1976  UC..1976      1.000000
    x...1977  CNS..111      1.000000   CNS..291     -1.000000
    x...1977  UC..1977      1.000000
    x...1978  CNS..111     -1.000000   CNS..291      1.000000
    x...1978  UC..1978      1.000000
    x...1979  CNS..113      1.000000   CNS..190     -1.000000
    x...1979  UC..1979      1.000000
    x...1980  CNS..113     -1.000000   CNS..190      1.000000
    x...1980  UC..1980      1.000000
    x...1981  CNS..188     -1.000000   CNS..347      1.000000
    x...1981  UC..1981      1.000000
    x...1982  CNS..246     -1.000000   CNS..347      1.000000
    x...1982  UC..1982      1.000000
    x...1983  CNS..328     -1.000000   CNS..402      1.000000
    x...1983  UC..1983      1.000000
    x...1984  CNS..328      1.000000   CNS..402     -1.000000
    x...1984  UC..1984      1.000000
    x...1985  CNS..210      1.000000   CNS..340     -1.000000
    x...1985  UC..1985      1.000000
    x...1986  CNS..044      1.000000   CNS..340     -1.000000
    x...1986  UC..1986      1.000000
    x...1987  CNS..010      1.000000   CNS..341     -1.000000
    x...1987  UC..1987      1.000000
    x...1988  CNS..199      1.000000   CNS..341     -1.000000
    x...1988  UC..1988      1.000000
    x...1989  CNS..113      1.000000   CNS..342     -1.000000
    x...1989  UC..1989      1.000000
    x...1990  CNS..190      1.000000   CNS..342     -1.000000
    x...1990  UC..1990      1.000000
    x...1991  CNS..133      1.000000   CNS..323     -1.000000
    x...1991  UC..1991      1.000000
    x...1992  CNS..133     -1.000000   CNS..323      1.000000
    x...1992  UC..1992      1.000000
    x...1993  CNS..001      1.000000   CNS..343     -1.000000
    x...1993  UC..1993      1.000000
    x...1994  CNS..338      1.000000   CNS..343     -1.000000
    x...1994  UC..1994      1.000000
    x...1995  CNS..002     -1.000000   CNS..440      1.000000
    x...1995  UC..1995      1.000000
    x...1996  CNS..343     -1.000000   CNS..440      1.000000
    x...1996  UC..1996      1.000000
    x...1997  CNS..165      1.000000   CNS..310     -1.000000
    x...1997  UC..1997      1.000000
    x...1998  CNS..165     -1.000000   CNS..310      1.000000
    x...1998  UC..1998      1.000000
    x...1999  CNS..044     -1.000000   CNS..443      1.000000
    x...1999  UC..1999      1.000000
    x...2000  CNS..210     -1.000000   CNS..443      1.000000
    x...2000  UC..2000      1.000000
    x...2001  CNS..271      1.000000   CNS..344     -1.000000
    x...2001  UC..2001      1.000000
    x...2002  CNS..259      1.000000   CNS..344     -1.000000
    x...2002  UC..2002      1.000000
    x...2003  CNS..022      1.000000   CNS..345     -1.000000
    x...2003  UC..2003      1.000000
    x...2004  CNS..345     -1.000000   CNS..442      1.000000
    x...2004  UC..2004      1.000000
    x...2005  CNS..001      1.000000   CNS..141     -1.000000
    x...2005  UC..2005      1.000000
    x...2006  CNS..001     -1.000000   CNS..141      1.000000
    x...2006  UC..2006      1.000000
    x...2007  CNS..011      1.000000   CNS..346     -1.000000
    x...2007  UC..2007      1.000000
    x...2008  CNS..041      1.000000   CNS..346     -1.000000
    x...2008  UC..2008      1.000000
    x...2009  CNS..041     -1.000000   CNS..399      1.000000
    x...2009  UC..2009      1.000000
    x...2010  CNS..011     -1.000000   CNS..399      1.000000
    x...2010  UC..2010      1.000000
    x...2011  CNS..203     -1.000000   CNS..345      1.000000
    x...2011  UC..2011      1.000000
    x...2012  CNS..203      1.000000   CNS..345     -1.000000
    x...2012  UC..2012      1.000000
    x...2013  CNS..246      1.000000   CNS..347     -1.000000
    x...2013  UC..2013      1.000000
    x...2014  CNS..188      1.000000   CNS..347     -1.000000
    x...2014  UC..2014      1.000000
    x...2015  CNS..111     -1.000000   CNS..406      1.000000
    x...2015  UC..2015      1.000000
    x...2016  CNS..291     -1.000000   CNS..406      1.000000
    x...2016  UC..2016      1.000000
    x...2017  CNS..188     -1.000000   CNS..337      1.000000
    x...2017  UC..2017      1.000000
    x...2018  CNS..188      1.000000   CNS..337     -1.000000
    x...2018  UC..2018      1.000000
    x...2019  CNS..169      1.000000   CNS..339     -1.000000
    x...2019  UC..2019      1.000000
    x...2020  CNS..169     -1.000000   CNS..339      1.000000
    x...2020  UC..2020      1.000000
    x...2021  CNS..232      1.000000   CNS..341     -1.000000
    x...2021  UC..2021      1.000000
    x...2022  CNS..232     -1.000000   CNS..341      1.000000
    x...2022  UC..2022      1.000000
    x...2023  CNS..014     -1.000000   CNS..407      1.000000
    x...2023  UC..2023      1.000000
    x...2024  CNS..127     -1.000000   CNS..407      1.000000
    x...2024  UC..2024      1.000000
    x...2025  CNS..271      1.000000   CNS..348     -1.000000
    x...2025  UC..2025      1.000000
    x...2026  CNS..034      1.000000   CNS..348     -1.000000
    x...2026  UC..2026      1.000000
    x...2027  CNS..061      1.000000   CNS..349     -1.000000
    x...2027  UC..2027      1.000000
    x...2028  CNS..122      1.000000   CNS..349     -1.000000
    x...2028  UC..2028      1.000000
    x...2029  CNS..047      1.000000   CNS..350     -1.000000
    x...2029  UC..2029      1.000000
    x...2030  CNS..093      1.000000   CNS..350     -1.000000
    x...2030  UC..2030      1.000000
    x...2031  CNS..259      1.000000   CNS..271     -1.000000
    x...2031  UC..2031      1.000000
    x...2032  CNS..259     -1.000000   CNS..271      1.000000
    x...2032  UC..2032      1.000000
    x...2033  CNS..020      1.000000   CNS..351     -1.000000
    x...2033  UC..2033      1.000000
    x...2034  CNS..007      1.000000   CNS..351     -1.000000
    x...2034  UC..2034      1.000000
    x...2035  CNS..193      1.000000   CNS..341     -1.000000
    x...2035  UC..2035      1.000000
    x...2036  CNS..193     -1.000000   CNS..341      1.000000
    x...2036  UC..2036      1.000000
    x...2037  CNS..058     -1.000000   CNS..342      1.000000
    x...2037  UC..2037      1.000000
    x...2038  CNS..058      1.000000   CNS..342     -1.000000
    x...2038  UC..2038      1.000000
    x...2039  CNS..061      1.000000   CNS..122     -1.000000
    x...2039  UC..2039      1.000000
    x...2040  CNS..061     -1.000000   CNS..122      1.000000
    x...2040  UC..2040      1.000000
    x...2041  CNS..097      1.000000   CNS..153     -1.000000
    x...2041  UC..2041      1.000000
    x...2042  CNS..097     -1.000000   CNS..153      1.000000
    x...2042  UC..2042      1.000000
    x...2043  CNS..011     -1.000000   CNS..041      1.000000
    x...2043  UC..2043      1.000000
    x...2044  CNS..011      1.000000   CNS..041     -1.000000
    x...2044  UC..2044      1.000000
    x...2045  CNS..278      1.000000   CNS..302     -1.000000
    x...2045  UC..2045      1.000000
    x...2046  CNS..278     -1.000000   CNS..302      1.000000
    x...2046  UC..2046      1.000000
    x...2047  CNS..027      1.000000   CNS..348     -1.000000
    x...2047  UC..2047      1.000000
    x...2048  CNS..027     -1.000000   CNS..348      1.000000
    x...2048  UC..2048      1.000000
    x...2049  CNS..298     -1.000000   CNS..347      1.000000
    x...2049  UC..2049      1.000000
    x...2050  CNS..298      1.000000   CNS..347     -1.000000
    x...2050  UC..2050      1.000000
    x...2051  CNS..004      1.000000   CNS..350     -1.000000
    x...2051  UC..2051      1.000000
    x...2052  CNS..004     -1.000000   CNS..350      1.000000
    x...2052  UC..2052      1.000000
    x...2053  CNS..265     -1.000000   CNS..339      1.000000
    x...2053  UC..2053      1.000000
    x...2054  CNS..265      1.000000   CNS..339     -1.000000
    x...2054  UC..2054      1.000000
    x...2055  CNS..002      1.000000   CNS..352     -1.000000
    x...2055  UC..2055      1.000000
    x...2056  CNS..021      1.000000   CNS..352     -1.000000
    x...2056  UC..2056      1.000000
    x...2057  CNS..038      1.000000   CNS..353     -1.000000
    x...2057  UC..2057      1.000000
    x...2058  CNS..121      1.000000   CNS..353     -1.000000
    x...2058  UC..2058      1.000000
    x...2059  CNS..118      1.000000   CNS..354     -1.000000
    x...2059  UC..2059      1.000000
    x...2060  CNS..033      1.000000   CNS..354     -1.000000
    x...2060  UC..2060      1.000000
    x...2061  CNS..044     -1.000000   CNS..210      1.000000
    x...2061  UC..2061      1.000000
    x...2062  CNS..044      1.000000   CNS..210     -1.000000
    x...2062  UC..2062      1.000000
    x...2063  CNS..057      1.000000   CNS..355     -1.000000
    x...2063  UC..2063      1.000000
    x...2064  CNS..147      1.000000   CNS..355     -1.000000
    x...2064  UC..2064      1.000000
    x...2065  CNS..281     -1.000000   CNS..354      1.000000
    x...2065  UC..2065      1.000000
    x...2066  CNS..281      1.000000   CNS..354     -1.000000
    x...2066  UC..2066      1.000000
    x...2067  CNS..024     -1.000000   CNS..343      1.000000
    x...2067  UC..2067      1.000000
    x...2068  CNS..024      1.000000   CNS..343     -1.000000
    x...2068  UC..2068      1.000000
    x...2069  CNS..099     -1.000000   CNS..334      1.000000
    x...2069  UC..2069      1.000000
    x...2070  CNS..099      1.000000   CNS..334     -1.000000
    x...2070  UC..2070      1.000000
    x...2071  CNS..147     -1.000000   CNS..420      1.000000
    x...2071  UC..2071      1.000000
    x...2072  CNS..057     -1.000000   CNS..420      1.000000
    x...2072  UC..2072      1.000000
    x...2073  CNS..311      1.000000   CNS..342     -1.000000
    x...2073  UC..2073      1.000000
    x...2074  CNS..311     -1.000000   CNS..342      1.000000
    x...2074  UC..2074      1.000000
    x...2075  CNS..003     -1.000000   CNS..190      1.000000
    x...2075  UC..2075      1.000000
    x...2076  CNS..003      1.000000   CNS..190     -1.000000
    x...2076  UC..2076      1.000000
    x...2077  CNS..027     -1.000000   CNS..344      1.000000
    x...2077  UC..2077      1.000000
    x...2078  CNS..027      1.000000   CNS..344     -1.000000
    x...2078  UC..2078      1.000000
    x...2079  CNS..035     -1.000000   CNS..353      1.000000
    x...2079  UC..2079      1.000000
    x...2080  CNS..035      1.000000   CNS..353     -1.000000
    x...2080  UC..2080      1.000000
    x...2081  CNS..305      1.000000   CNS..356     -1.000000
    x...2081  UC..2081      1.000000
    x...2082  CNS..152      1.000000   CNS..356     -1.000000
    x...2082  UC..2082      1.000000
    x...2083  CNS..349      1.000000   CNS..474     -1.000000
    x...2083  UC..2083      1.000000
    x...2084  CNS..349     -1.000000   CNS..474      1.000000
    x...2084  UC..2084      1.000000
    x...2085  CNS..007      1.000000   CNS..020     -1.000000
    x...2085  UC..2085      1.000000
    x...2086  CNS..007     -1.000000   CNS..020      1.000000
    x...2086  UC..2086      1.000000
    x...2087  CNS..034     -1.000000   CNS..319      1.000000
    x...2087  UC..2087      1.000000
    x...2088  CNS..034      1.000000   CNS..319     -1.000000
    x...2088  UC..2088      1.000000
    x...2089  CNS..320     -1.000000   CNS..427      1.000000
    x...2089  UC..2089      1.000000
    x...2090  CNS..320      1.000000   CNS..427     -1.000000
    x...2090  UC..2090      1.000000
    x...2091  CNS..330      1.000000   CNS..357     -1.000000
    x...2091  UC..2091      1.000000
    x...2092  CNS..060      1.000000   CNS..357     -1.000000
    x...2092  UC..2092      1.000000
    x...2093  CNS..140     -1.000000   CNS..327      1.000000
    x...2093  UC..2093      1.000000
    x...2094  CNS..140      1.000000   CNS..327     -1.000000
    x...2094  UC..2094      1.000000
    x...2095  CNS..104     -1.000000   CNS..353      1.000000
    x...2095  UC..2095      1.000000
    x...2096  CNS..104      1.000000   CNS..353     -1.000000
    x...2096  UC..2096      1.000000
    x...2097  CNS..185      1.000000   CNS..442     -1.000000
    x...2097  UC..2097      1.000000
    x...2098  CNS..185     -1.000000   CNS..442      1.000000
    x...2098  UC..2098      1.000000
    x...2099  CNS..231      1.000000   CNS..358     -1.000000
    x...2099  UC..2099      1.000000
    x...2100  CNS..358     -1.000000   CNS..480      1.000000
    x...2100  UC..2100      1.000000
    x...2101  CNS..097     -1.000000   CNS..252      1.000000
    x...2101  UC..2101      1.000000
    x...2102  CNS..097      1.000000   CNS..252     -1.000000
    x...2102  UC..2102      1.000000
    x...2103  CNS..025      1.000000   CNS..359     -1.000000
    x...2103  UC..2103      1.000000
    x...2104  CNS..017      1.000000   CNS..359     -1.000000
    x...2104  UC..2104      1.000000
    x...2105  CNS..001     -1.000000   CNS..375      1.000000
    x...2105  UC..2105      1.000000
    x...2106  CNS..357     -1.000000   CNS..375      1.000000
    x...2106  UC..2106      1.000000
    x...2107  CNS..033      1.000000   CNS..118     -1.000000
    x...2107  UC..2107      1.000000
    x...2108  CNS..033     -1.000000   CNS..118      1.000000
    x...2108  UC..2108      1.000000
    x...2109  CNS..060      1.000000   CNS..330     -1.000000
    x...2109  UC..2109      1.000000
    x...2110  CNS..060     -1.000000   CNS..330      1.000000
    x...2110  UC..2110      1.000000
    x...2111  CNS..152     -1.000000   CNS..305      1.000000
    x...2111  UC..2111      1.000000
    x...2112  CNS..152      1.000000   CNS..305     -1.000000
    x...2112  UC..2112      1.000000
    x...2113  CNS..264      1.000000   CNS..360     -1.000000
    x...2113  UC..2113      1.000000
    x...2114  CNS..360     -1.000000   CNS..490      1.000000
    x...2114  UC..2114      1.000000
    x...2115  CNS..273      1.000000   CNS..361     -1.000000
    x...2115  UC..2115      1.000000
    x...2116  CNS..305      1.000000   CNS..361     -1.000000
    x...2116  UC..2116      1.000000
    x...2117  CNS..310      1.000000   CNS..362     -1.000000
    x...2117  UC..2117      1.000000
    x...2118  CNS..027      1.000000   CNS..362     -1.000000
    x...2118  UC..2118      1.000000
    x...2119  CNS..003     -1.000000   CNS..352      1.000000
    x...2119  UC..2119      1.000000
    x...2120  CNS..003      1.000000   CNS..352     -1.000000
    x...2120  UC..2120      1.000000
    x...2121  CNS..073     -1.000000   CNS..362      1.000000
    x...2121  UC..2121      1.000000
    x...2122  CNS..073      1.000000   CNS..362     -1.000000
    x...2122  UC..2122      1.000000
    x...2123  CNS..318      1.000000   CNS..382     -1.000000
    x...2123  UC..2123      1.000000
    x...2124  CNS..318     -1.000000   CNS..382      1.000000
    x...2124  UC..2124      1.000000
    x...2125  CNS..273     -1.000000   CNS..305      1.000000
    x...2125  UC..2125      1.000000
    x...2126  CNS..273      1.000000   CNS..305     -1.000000
    x...2126  UC..2126      1.000000
    x...2127  CNS..095     -1.000000   CNS..362      1.000000
    x...2127  UC..2127      1.000000
    x...2128  CNS..095      1.000000   CNS..362     -1.000000
    x...2128  UC..2128      1.000000
    x...2129  CNS..005      1.000000   CNS..363     -1.000000
    x...2129  UC..2129      1.000000
    x...2130  CNS..039      1.000000   CNS..363     -1.000000
    x...2130  UC..2130      1.000000
    x...2131  CNS..024     -1.000000   CNS..452      1.000000
    x...2131  UC..2131      1.000000
    x...2132  CNS..001     -1.000000   CNS..378      1.000000
    x...2132  UC..2132      1.000000
    x...2133  CNS..152     -1.000000   CNS..361      1.000000
    x...2133  UC..2133      1.000000
    x...2134  CNS..152      1.000000   CNS..361     -1.000000
    x...2134  UC..2134      1.000000
    x...2135  CNS..008      1.000000   CNS..364     -1.000000
    x...2135  UC..2135      1.000000
    x...2136  CNS..075      1.000000   CNS..364     -1.000000
    x...2136  UC..2136      1.000000
    x...2137  CNS..216     -1.000000   CNS..359      1.000000
    x...2137  UC..2137      1.000000
    x...2138  CNS..216      1.000000   CNS..359     -1.000000
    x...2138  UC..2138      1.000000
    x...2139  CNS..121      1.000000   CNS..365     -1.000000
    x...2139  UC..2139      1.000000
    x...2140  CNS..104      1.000000   CNS..365     -1.000000
    x...2140  UC..2140      1.000000
    x...2141  CNS..171      1.000000   CNS..264     -1.000000
    x...2141  UC..2141      1.000000
    x...2142  CNS..171     -1.000000   CNS..264      1.000000
    x...2142  UC..2142      1.000000
    x...2143  CNS..011      1.000000   CNS..359     -1.000000
    x...2143  UC..2143      1.000000
    x...2144  CNS..011     -1.000000   CNS..359      1.000000
    x...2144  UC..2144      1.000000
    x...2145  CNS..287     -1.000000   CNS..350      1.000000
    x...2145  UC..2145      1.000000
    x...2146  CNS..287      1.000000   CNS..350     -1.000000
    x...2146  UC..2146      1.000000
    x...2147  CNS..284     -1.000000   CNS..358      1.000000
    x...2147  UC..2147      1.000000
    x...2148  CNS..284      1.000000   CNS..358     -1.000000
    x...2148  UC..2148      1.000000
    x...2149  CNS..029      1.000000   CNS..366     -1.000000
    x...2149  UC..2149      1.000000
    x...2150  CNS..012      1.000000   CNS..366     -1.000000
    x...2150  UC..2150      1.000000
    x...2151  CNS..013      1.000000   CNS..367     -1.000000
    x...2151  UC..2151      1.000000
    x...2152  CNS..202      1.000000   CNS..367     -1.000000
    x...2152  UC..2152      1.000000
    x...2153  CNS..257     -1.000000   CNS..351      1.000000
    x...2153  UC..2153      1.000000
    x...2154  CNS..257      1.000000   CNS..351     -1.000000
    x...2154  UC..2154      1.000000
    x...2155  CNS..012      1.000000   CNS..029     -1.000000
    x...2155  UC..2155      1.000000
    x...2156  CNS..012     -1.000000   CNS..029      1.000000
    x...2156  UC..2156      1.000000
    x...2157  CNS..161      1.000000   CNS..366     -1.000000
    x...2157  UC..2157      1.000000
    x...2158  CNS..161     -1.000000   CNS..366      1.000000
    x...2158  UC..2158      1.000000
    x...2159  CNS..368     -1.000000   CNS..483      1.000000
    x...2159  UC..2159      1.000000
    x...2160  CNS..140      1.000000   CNS..368     -1.000000
    x...2160  UC..2160      1.000000
    x...2161  CNS..028     -1.000000   CNS..401      1.000000
    x...2161  UC..2161      1.000000
    x...2162  CNS..367     -1.000000   CNS..401      1.000000
    x...2162  UC..2162      1.000000
    x...2163  CNS..369     -1.000000   CNS..371      1.000000
    x...2163  UC..2163      1.000000
    x...2164  CNS..369     -1.000000   CNS..434      1.000000
    x...2164  UC..2164      1.000000
    x...2165  CNS..004      1.000000   CNS..370     -1.000000
    x...2165  UC..2165      1.000000
    x...2166  CNS..007      1.000000   CNS..370     -1.000000
    x...2166  UC..2166      1.000000
    x...2167  CNS..005     -1.000000   CNS..039      1.000000
    x...2167  UC..2167      1.000000
    x...2168  CNS..005      1.000000   CNS..039     -1.000000
    x...2168  UC..2168      1.000000
    x...2169  CNS..356      1.000000   CNS..361     -1.000000
    x...2169  UC..2169      1.000000
    x...2170  CNS..356     -1.000000   CNS..361      1.000000
    x...2170  UC..2170      1.000000
    x...2171  CNS..041      1.000000   CNS..371     -1.000000
    x...2171  UC..2171      1.000000
    x...2172  CNS..369      1.000000   CNS..371     -1.000000
    x...2172  UC..2172      1.000000
    x...2173  CNS..041     -1.000000   CNS..270      1.000000
    x...2173  UC..2173      1.000000
    x...2174  CNS..041      1.000000   CNS..270     -1.000000
    x...2174  UC..2174      1.000000
    x...2175  CNS..018      1.000000   CNS..372     -1.000000
    x...2175  UC..2175      1.000000
    x...2176  CNS..011      1.000000   CNS..372     -1.000000
    x...2176  UC..2176      1.000000
    x...2177  CNS..330      1.000000   CNS..373     -1.000000
    x...2177  UC..2177      1.000000
    x...2178  CNS..024      1.000000   CNS..373     -1.000000
    x...2178  UC..2178      1.000000
    x...2179  CNS..125     -1.000000   CNS..372      1.000000
    x...2179  UC..2179      1.000000
    x...2180  CNS..125      1.000000   CNS..372     -1.000000
    x...2180  UC..2180      1.000000
    x...2181  CNS..250     -1.000000   CNS..364      1.000000
    x...2181  UC..2181      1.000000
    x...2182  CNS..250      1.000000   CNS..364     -1.000000
    x...2182  UC..2182      1.000000
    x...2183  CNS..121     -1.000000   CNS..377      1.000000
    x...2183  UC..2183      1.000000
    x...2184  CNS..104     -1.000000   CNS..377      1.000000
    x...2184  UC..2184      1.000000
    x...2185  CNS..024     -1.000000   CNS..330      1.000000
    x...2185  UC..2185      1.000000
    x...2186  CNS..024      1.000000   CNS..330     -1.000000
    x...2186  UC..2186      1.000000
    x...2187  CNS..109      1.000000   CNS..374     -1.000000
    x...2187  UC..2187      1.000000
    x...2188  CNS..010      1.000000   CNS..374     -1.000000
    x...2188  UC..2188      1.000000
    x...2189  CNS..041     -1.000000   CNS..408      1.000000
    x...2189  UC..2189      1.000000
    x...2190  CNS..369     -1.000000   CNS..408      1.000000
    x...2190  UC..2190      1.000000
    x...2191  CNS..357      1.000000   CNS..375     -1.000000
    x...2191  UC..2191      1.000000
    x...2192  CNS..001      1.000000   CNS..375     -1.000000
    x...2192  UC..2192      1.000000
    x...2193  CNS..198      1.000000   CNS..376     -1.000000
    x...2193  UC..2193      1.000000
    x...2194  CNS..121      1.000000   CNS..376     -1.000000
    x...2194  UC..2194      1.000000
    x...2195  CNS..081     -1.000000   CNS..434      1.000000
    x...2195  UC..2195      1.000000
    x...2196  CNS..081      1.000000   CNS..434     -1.000000
    x...2196  UC..2196      1.000000
    x...2197  CNS..104      1.000000   CNS..377     -1.000000
    x...2197  UC..2197      1.000000
    x...2198  CNS..121      1.000000   CNS..377     -1.000000
    x...2198  UC..2198      1.000000
    x...2199  CNS..221     -1.000000   CNS..370      1.000000
    x...2199  UC..2199      1.000000
    x...2200  CNS..221      1.000000   CNS..370     -1.000000
    x...2200  UC..2200      1.000000
    x...2201  CNS..001      1.000000   CNS..378     -1.000000
    x...2201  UC..2201      1.000000
    x...2202  CNS..378     -1.000000   CNS..452      1.000000
    x...2202  UC..2202      1.000000
    x...2203  CNS..365     -1.000000   CNS..377      1.000000
    x...2203  UC..2203      1.000000
    x...2204  CNS..365      1.000000   CNS..377     -1.000000
    x...2204  UC..2204      1.000000
    x...2205  CNS..024      1.000000   CNS..347     -1.000000
    x...2205  UC..2205      1.000000
    x...2206  CNS..024     -1.000000   CNS..347      1.000000
    x...2206  UC..2206      1.000000
    x...2207  CNS..023      1.000000   CNS..370     -1.000000
    x...2207  UC..2207      1.000000
    x...2208  CNS..023     -1.000000   CNS..370      1.000000
    x...2208  UC..2208      1.000000
    x...2209  CNS..077      1.000000   CNS..379     -1.000000
    x...2209  UC..2209      1.000000
    x...2210  CNS..240      1.000000   CNS..379     -1.000000
    x...2210  UC..2210      1.000000
    x...2211  CNS..077     -1.000000   CNS..240      1.000000
    x...2211  UC..2211      1.000000
    x...2212  CNS..077      1.000000   CNS..240     -1.000000
    x...2212  UC..2212      1.000000
    x...2213  CNS..106      1.000000   CNS..380     -1.000000
    x...2213  UC..2213      1.000000
    x...2214  CNS..065      1.000000   CNS..380     -1.000000
    x...2214  UC..2214      1.000000
    x...2215  CNS..256     -1.000000   CNS..336      1.000000
    x...2215  UC..2215      1.000000
    x...2216  CNS..256      1.000000   CNS..336     -1.000000
    x...2216  UC..2216      1.000000
    x...2217  CNS..249      1.000000   CNS..381     -1.000000
    x...2217  UC..2217      1.000000
    x...2218  CNS..180      1.000000   CNS..381     -1.000000
    x...2218  UC..2218      1.000000
    x...2219  CNS..068     -1.000000   CNS..380      1.000000
    x...2219  UC..2219      1.000000
    x...2220  CNS..068      1.000000   CNS..380     -1.000000
    x...2220  UC..2220      1.000000
    x...2221  CNS..270     -1.000000   CNS..371      1.000000
    x...2221  UC..2221      1.000000
    x...2222  CNS..270      1.000000   CNS..371     -1.000000
    x...2222  UC..2222      1.000000
    x...2223  CNS..011     -1.000000   CNS..358      1.000000
    x...2223  UC..2223      1.000000
    x...2224  CNS..011      1.000000   CNS..358     -1.000000
    x...2224  UC..2224      1.000000
    x...2225  CNS..011      1.000000   CNS..374     -1.000000
    x...2225  UC..2225      1.000000
    x...2226  CNS..011     -1.000000   CNS..374      1.000000
    x...2226  UC..2226      1.000000
    x...2227  CNS..121     -1.000000   CNS..198      1.000000
    x...2227  UC..2227      1.000000
    x...2228  CNS..121      1.000000   CNS..198     -1.000000
    x...2228  UC..2228      1.000000
    x...2229  CNS..170     -1.000000   CNS..372      1.000000
    x...2229  UC..2229      1.000000
    x...2230  CNS..170      1.000000   CNS..372     -1.000000
    x...2230  UC..2230      1.000000
    x...2231  CNS..060      1.000000   CNS..373     -1.000000
    x...2231  UC..2231      1.000000
    x...2232  CNS..060     -1.000000   CNS..373      1.000000
    x...2232  UC..2232      1.000000
    x...2233  CNS..010      1.000000   CNS..417     -1.000000
    x...2233  UC..2233      1.000000
    x...2234  CNS..010     -1.000000   CNS..417      1.000000
    x...2234  UC..2234      1.000000
    x...2235  CNS..140      1.000000   CNS..252     -1.000000
    x...2235  UC..2235      1.000000
    x...2236  CNS..140     -1.000000   CNS..252      1.000000
    x...2236  UC..2236      1.000000
    x...2237  CNS..010     -1.000000   CNS..379      1.000000
    x...2237  UC..2237      1.000000
    x...2238  CNS..010      1.000000   CNS..379     -1.000000
    x...2238  UC..2238      1.000000
    x...2239  CNS..010      1.000000   CNS..382     -1.000000
    x...2239  UC..2239      1.000000
    x...2240  CNS..006      1.000000   CNS..382     -1.000000
    x...2240  UC..2240      1.000000
    x...2241  CNS..041      1.000000   CNS..383     -1.000000
    x...2241  UC..2241      1.000000
    x...2242  CNS..010      1.000000   CNS..383     -1.000000
    x...2242  UC..2242      1.000000
    x...2243  CNS..034      1.000000   CNS..363     -1.000000
    x...2243  UC..2243      1.000000
    x...2244  CNS..034     -1.000000   CNS..363      1.000000
    x...2244  UC..2244      1.000000
    x...2245  CNS..330      1.000000   CNS..375     -1.000000
    x...2245  UC..2245      1.000000
    x...2246  CNS..330     -1.000000   CNS..375      1.000000
    x...2246  UC..2246      1.000000
    x...2247  CNS..083      1.000000   CNS..352     -1.000000
    x...2247  UC..2247      1.000000
    x...2248  CNS..083     -1.000000   CNS..352      1.000000
    x...2248  UC..2248      1.000000
    x...2249  CNS..180     -1.000000   CNS..249      1.000000
    x...2249  UC..2249      1.000000
    x...2250  CNS..180      1.000000   CNS..249     -1.000000
    x...2250  UC..2250      1.000000
    x...2251  CNS..137      1.000000   CNS..384     -1.000000
    x...2251  UC..2251      1.000000
    x...2252  CNS..107      1.000000   CNS..384     -1.000000
    x...2252  UC..2252      1.000000
    x...2253  CNS..287      1.000000   CNS..385     -1.000000
    x...2253  UC..2253      1.000000
    x...2254  CNS..093      1.000000   CNS..385     -1.000000
    x...2254  UC..2254      1.000000
    x...2255  CNS..031      1.000000   CNS..384     -1.000000
    x...2255  UC..2255      1.000000
    x...2256  CNS..031     -1.000000   CNS..384      1.000000
    x...2256  UC..2256      1.000000
    x...2257  CNS..034      1.000000   CNS..386     -1.000000
    x...2257  UC..2257      1.000000
    x...2258  CNS..005      1.000000   CNS..386     -1.000000
    x...2258  UC..2258      1.000000
    x...2259  CNS..178      1.000000   CNS..387     -1.000000
    x...2259  UC..2259      1.000000
    x...2260  CNS..003      1.000000   CNS..387     -1.000000
    x...2260  UC..2260      1.000000
    x...2261  CNS..388     -1.000000   CNS..486      1.000000
    x...2261  UC..2261      1.000000
    x...2262  CNS..312      1.000000   CNS..388     -1.000000
    x...2262  UC..2262      1.000000
    x...2263  CNS..087      1.000000   CNS..389     -1.000000
    x...2263  UC..2263      1.000000
    x...2264  CNS..136      1.000000   CNS..389     -1.000000
    x...2264  UC..2264      1.000000
    x...2265  CNS..327      1.000000   CNS..368     -1.000000
    x...2265  UC..2265      1.000000
    x...2266  CNS..327     -1.000000   CNS..368      1.000000
    x...2266  UC..2266      1.000000
    x...2267  CNS..047     -1.000000   CNS..385      1.000000
    x...2267  UC..2267      1.000000
    x...2268  CNS..047      1.000000   CNS..385     -1.000000
    x...2268  UC..2268      1.000000
    x...2269  CNS..253      1.000000   CNS..390     -1.000000
    x...2269  UC..2269      1.000000
    x...2270  CNS..002      1.000000   CNS..390     -1.000000
    x...2270  UC..2270      1.000000
    x...2271  CNS..313      1.000000   CNS..386     -1.000000
    x...2271  UC..2271      1.000000
    x...2272  CNS..313     -1.000000   CNS..386      1.000000
    x...2272  UC..2272      1.000000
    x...2273  CNS..042      1.000000   CNS..391     -1.000000
    x...2273  UC..2273      1.000000
    x...2274  CNS..007      1.000000   CNS..391     -1.000000
    x...2274  UC..2274      1.000000
    x...2275  CNS..028      1.000000   CNS..392     -1.000000
    x...2275  UC..2275      1.000000
    x...2276  CNS..202      1.000000   CNS..392     -1.000000
    x...2276  UC..2276      1.000000
    x...2277  CNS..192     -1.000000   CNS..389      1.000000
    x...2277  UC..2277      1.000000
    x...2278  CNS..192      1.000000   CNS..389     -1.000000
    x...2278  UC..2278      1.000000
    x...2279  CNS..393     -1.000000   CNS..398      1.000000
    x...2279  UC..2279      1.000000
    x...2280  CNS..151      1.000000   CNS..393     -1.000000
    x...2280  UC..2280      1.000000
    x...2281  CNS..060     -1.000000   CNS..375      1.000000
    x...2281  UC..2281      1.000000
    x...2282  CNS..060      1.000000   CNS..375     -1.000000
    x...2282  UC..2282      1.000000
    x...2283  CNS..363      1.000000   CNS..386     -1.000000
    x...2283  UC..2283      1.000000
    x...2284  CNS..363     -1.000000   CNS..386      1.000000
    x...2284  UC..2284      1.000000
    x...2285  CNS..051      1.000000   CNS..378     -1.000000
    x...2285  UC..2285      1.000000
    x...2286  CNS..051     -1.000000   CNS..378      1.000000
    x...2286  UC..2286      1.000000
    x...2287  CNS..393      1.000000   CNS..445     -1.000000
    x...2287  UC..2287      1.000000
    x...2288  CNS..393     -1.000000   CNS..445      1.000000
    x...2288  UC..2288      1.000000
    x...2289  CNS..224      1.000000   CNS..393     -1.000000
    x...2289  UC..2289      1.000000
    x...2290  CNS..224     -1.000000   CNS..393      1.000000
    x...2290  UC..2290      1.000000
    x...2291  CNS..011      1.000000   CNS..394     -1.000000
    x...2291  UC..2291      1.000000
    x...2292  CNS..170      1.000000   CNS..394     -1.000000
    x...2292  UC..2292      1.000000
    x...2293  CNS..065      1.000000   CNS..106     -1.000000
    x...2293  UC..2293      1.000000
    x...2294  CNS..065     -1.000000   CNS..106      1.000000
    x...2294  UC..2294      1.000000
    x...2295  CNS..269      1.000000   CNS..384     -1.000000
    x...2295  UC..2295      1.000000
    x...2296  CNS..269     -1.000000   CNS..384      1.000000
    x...2296  UC..2296      1.000000
    x...2297  CNS..010     -1.000000   CNS..109      1.000000
    x...2297  UC..2297      1.000000
    x...2298  CNS..010      1.000000   CNS..109     -1.000000
    x...2298  UC..2298      1.000000
    x...2299  CNS..391     -1.000000   CNS..418      1.000000
    x...2299  UC..2299      1.000000
    x...2300  CNS..092     -1.000000   CNS..418      1.000000
    x...2300  UC..2300      1.000000
    x...2301  CNS..011     -1.000000   CNS..382      1.000000
    x...2301  UC..2301      1.000000
    x...2302  CNS..011      1.000000   CNS..382     -1.000000
    x...2302  UC..2302      1.000000
    x...2303  CNS..035      1.000000   CNS..376     -1.000000
    x...2303  UC..2303      1.000000
    x...2304  CNS..035     -1.000000   CNS..376      1.000000
    x...2304  UC..2304      1.000000
    x...2305  CNS..164      1.000000   CNS..395     -1.000000
    x...2305  UC..2305      1.000000
    x...2306  CNS..044      1.000000   CNS..395     -1.000000
    x...2306  UC..2306      1.000000
    x...2307  CNS..018     -1.000000   CNS..415      1.000000
    x...2307  UC..2307      1.000000
    x...2308  CNS..394     -1.000000   CNS..415      1.000000
    x...2308  UC..2308      1.000000
    x...2309  CNS..037     -1.000000   CNS..382      1.000000
    x...2309  UC..2309      1.000000
    x...2310  CNS..037      1.000000   CNS..382     -1.000000
    x...2310  UC..2310      1.000000
    x...2311  CNS..028      1.000000   CNS..202     -1.000000
    x...2311  UC..2311      1.000000
    x...2312  CNS..028     -1.000000   CNS..202      1.000000
    x...2312  UC..2312      1.000000
    x...2313  CNS..003      1.000000   CNS..178     -1.000000
    x...2313  UC..2313      1.000000
    x...2314  CNS..003     -1.000000   CNS..178      1.000000
    x...2314  UC..2314      1.000000
    x...2315  CNS..007      1.000000   CNS..390     -1.000000
    x...2315  UC..2315      1.000000
    x...2316  CNS..007     -1.000000   CNS..390      1.000000
    x...2316  UC..2316      1.000000
    x...2317  CNS..004      1.000000   CNS..396     -1.000000
    x...2317  UC..2317      1.000000
    x...2318  CNS..015      1.000000   CNS..396     -1.000000
    x...2318  UC..2318      1.000000
    x...2319  CNS..043      1.000000   CNS..397     -1.000000
    x...2319  UC..2319      1.000000
    x...2320  CNS..022      1.000000   CNS..397     -1.000000
    x...2320  UC..2320      1.000000
    x...2321  CNS..046      1.000000   CNS..398     -1.000000
    x...2321  UC..2321      1.000000
    x...2322  CNS..393      1.000000   CNS..398     -1.000000
    x...2322  UC..2322      1.000000
    x...2323  CNS..011      1.000000   CNS..399     -1.000000
    x...2323  UC..2323      1.000000
    x...2324  CNS..041      1.000000   CNS..399     -1.000000
    x...2324  UC..2324      1.000000
    x...2325  CNS..224      1.000000   CNS..398     -1.000000
    x...2325  UC..2325      1.000000
    x...2326  CNS..224     -1.000000   CNS..398      1.000000
    x...2326  UC..2326      1.000000
    x...2327  CNS..400     -1.000000   CNS..429      1.000000
    x...2327  UC..2327      1.000000
    x...2328  CNS..019      1.000000   CNS..400     -1.000000
    x...2328  UC..2328      1.000000
    x...2329  CNS..261     -1.000000   CNS..387      1.000000
    x...2329  UC..2329      1.000000
    x...2330  CNS..261      1.000000   CNS..387     -1.000000
    x...2330  UC..2330      1.000000
    x...2331  CNS..019      1.000000   CNS..213     -1.000000
    x...2331  UC..2331      1.000000
    x...2332  CNS..019     -1.000000   CNS..213      1.000000
    x...2332  UC..2332      1.000000
    x...2333  CNS..087      1.000000   CNS..136     -1.000000
    x...2333  UC..2333      1.000000
    x...2334  CNS..087     -1.000000   CNS..136      1.000000
    x...2334  UC..2334      1.000000
    x...2335  CNS..283      1.000000   CNS..396     -1.000000
    x...2335  UC..2335      1.000000
    x...2336  CNS..283     -1.000000   CNS..396      1.000000
    x...2336  UC..2336      1.000000
    x...2337  CNS..104     -1.000000   CNS..121      1.000000
    x...2337  UC..2337      1.000000
    x...2338  CNS..104      1.000000   CNS..121     -1.000000
    x...2338  UC..2338      1.000000
    x...2339  CNS..367      1.000000   CNS..401     -1.000000
    x...2339  UC..2339      1.000000
    x...2340  CNS..028      1.000000   CNS..401     -1.000000
    x...2340  UC..2340      1.000000
    x...2341  CNS..162     -1.000000   CNS..312      1.000000
    x...2341  UC..2341      1.000000
    x...2342  CNS..162      1.000000   CNS..312     -1.000000
    x...2342  UC..2342      1.000000
    x...2343  CNS..067      1.000000   CNS..364     -1.000000
    x...2343  UC..2343      1.000000
    x...2344  CNS..067     -1.000000   CNS..364      1.000000
    x...2344  UC..2344      1.000000
    x...2345  CNS..214      1.000000   CNS..402     -1.000000
    x...2345  UC..2345      1.000000
    x...2346  CNS..161      1.000000   CNS..402     -1.000000
    x...2346  UC..2346      1.000000
    x...2347  CNS..343     -1.000000   CNS..378      1.000000
    x...2347  UC..2347      1.000000
    x...2348  CNS..343      1.000000   CNS..378     -1.000000
    x...2348  UC..2348      1.000000
    x...2349  CNS..197      1.000000   CNS..395     -1.000000
    x...2349  UC..2349      1.000000
    x...2350  CNS..197     -1.000000   CNS..395      1.000000
    x...2350  UC..2350      1.000000
    x...2351  CNS..196      1.000000   CNS..402     -1.000000
    x...2351  UC..2351      1.000000
    x...2352  CNS..196     -1.000000   CNS..402      1.000000
    x...2352  UC..2352      1.000000
    x...2353  CNS..304     -1.000000   CNS..399      1.000000
    x...2353  UC..2353      1.000000
    x...2354  CNS..304      1.000000   CNS..399     -1.000000
    x...2354  UC..2354      1.000000
    x...2355  CNS..027      1.000000   CNS..403     -1.000000
    x...2355  UC..2355      1.000000
    x...2356  CNS..001      1.000000   CNS..403     -1.000000
    x...2356  UC..2356      1.000000
    x...2357  CNS..003     -1.000000   CNS..381      1.000000
    x...2357  UC..2357      1.000000
    x...2358  CNS..003      1.000000   CNS..381     -1.000000
    x...2358  UC..2358      1.000000
    x...2359  CNS..182     -1.000000   CNS..367      1.000000
    x...2359  UC..2359      1.000000
    x...2360  CNS..182      1.000000   CNS..367     -1.000000
    x...2360  UC..2360      1.000000
    x...2361  CNS..001     -1.000000   CNS..027      1.000000
    x...2361  UC..2361      1.000000
    x...2362  CNS..001      1.000000   CNS..027     -1.000000
    x...2362  UC..2362      1.000000
    x...2363  CNS..161      1.000000   CNS..214     -1.000000
    x...2363  UC..2363      1.000000
    x...2364  CNS..161     -1.000000   CNS..214      1.000000
    x...2364  UC..2364      1.000000
    x...2365  CNS..353      1.000000   CNS..377     -1.000000
    x...2365  UC..2365      1.000000
    x...2366  CNS..353     -1.000000   CNS..377      1.000000
    x...2366  UC..2366      1.000000
    x...2367  CNS..022      1.000000   CNS..043     -1.000000
    x...2367  UC..2367      1.000000
    x...2368  CNS..022     -1.000000   CNS..043      1.000000
    x...2368  UC..2368      1.000000
    x...2369  CNS..112      1.000000   CNS..404     -1.000000
    x...2369  UC..2369      1.000000
    x...2370  CNS..404     -1.000000   CNS..431      1.000000
    x...2370  UC..2370      1.000000
    x...2371  CNS..023      1.000000   CNS..395     -1.000000
    x...2371  UC..2371      1.000000
    x...2372  CNS..023     -1.000000   CNS..395      1.000000
    x...2372  UC..2372      1.000000
    x...2373  CNS..405     -1.000000   CNS..419      1.000000
    x...2373  UC..2373      1.000000
    x...2374  CNS..010      1.000000   CNS..405     -1.000000
    x...2374  UC..2374      1.000000
    x...2375  CNS..120     -1.000000   CNS..403      1.000000
    x...2375  UC..2375      1.000000
    x...2376  CNS..120      1.000000   CNS..403     -1.000000
    x...2376  UC..2376      1.000000
    x...2377  CNS..010      1.000000   CNS..041     -1.000000
    x...2377  UC..2377      1.000000
    x...2378  CNS..010     -1.000000   CNS..041      1.000000
    x...2378  UC..2378      1.000000
    x...2379  CNS..069     -1.000000   CNS..448      1.000000
    x...2379  UC..2379      1.000000
    x...2380  CNS..405     -1.000000   CNS..448      1.000000
    x...2380  UC..2380      1.000000
    x...2381  CNS..291      1.000000   CNS..406     -1.000000
    x...2381  UC..2381      1.000000
    x...2382  CNS..111      1.000000   CNS..406     -1.000000
    x...2382  UC..2382      1.000000
    x...2383  CNS..002      1.000000   CNS..112     -1.000000
    x...2383  UC..2383      1.000000
    x...2384  CNS..002     -1.000000   CNS..112      1.000000
    x...2384  UC..2384      1.000000
    x...2385  CNS..049     -1.000000   CNS..383      1.000000
    x...2385  UC..2385      1.000000
    x...2386  CNS..049      1.000000   CNS..383     -1.000000
    x...2386  UC..2386      1.000000
    x...2387  CNS..020     -1.000000   CNS..397      1.000000
    x...2387  UC..2387      1.000000
    x...2388  CNS..020      1.000000   CNS..397     -1.000000
    x...2388  UC..2388      1.000000
    x...2389  CNS..350     -1.000000   CNS..385      1.000000
    x...2389  UC..2389      1.000000
    x...2390  CNS..350      1.000000   CNS..385     -1.000000
    x...2390  UC..2390      1.000000
    x...2391  CNS..127      1.000000   CNS..407     -1.000000
    x...2391  UC..2391      1.000000
    x...2392  CNS..014      1.000000   CNS..407     -1.000000
    x...2392  UC..2392      1.000000
    x...2393  CNS..369      1.000000   CNS..408     -1.000000
    x...2393  UC..2393      1.000000
    x...2394  CNS..041      1.000000   CNS..408     -1.000000
    x...2394  UC..2394      1.000000
    x...2395  CNS..004     -1.000000   CNS..486      1.000000
    x...2395  UC..2395      1.000000
    x...2396  CNS..004      1.000000   CNS..486     -1.000000
    x...2396  UC..2396      1.000000
    x...2397  CNS..074     -1.000000   CNS..348      1.000000
    x...2397  UC..2397      1.000000
    x...2398  CNS..074      1.000000   CNS..348     -1.000000
    x...2398  UC..2398      1.000000
    x...2399  CNS..014     -1.000000   CNS..127      1.000000
    x...2399  UC..2399      1.000000
    x...2400  CNS..014      1.000000   CNS..127     -1.000000
    x...2400  UC..2400      1.000000
    x...2401  CNS..197      1.000000   CNS..409     -1.000000
    x...2401  UC..2401      1.000000
    x...2402  CNS..409     -1.000000   CNS..450      1.000000
    x...2402  UC..2402      1.000000
    x...2403  CNS..392      1.000000   CNS..401     -1.000000
    x...2403  UC..2403      1.000000
    x...2404  CNS..392     -1.000000   CNS..401      1.000000
    x...2404  UC..2404      1.000000
    x...2405  CNS..099      1.000000   CNS..410     -1.000000
    x...2405  UC..2405      1.000000
    x...2406  CNS..206      1.000000   CNS..410     -1.000000
    x...2406  UC..2406      1.000000
    x...2407  CNS..010      1.000000   CNS..411     -1.000000
    x...2407  UC..2407      1.000000
    x...2408  CNS..063      1.000000   CNS..411     -1.000000
    x...2408  UC..2408      1.000000
    x...2409  CNS..098     -1.000000   CNS..396      1.000000
    x...2409  UC..2409      1.000000
    x...2410  CNS..098      1.000000   CNS..396     -1.000000
    x...2410  UC..2410      1.000000
    x...2411  CNS..048     -1.000000   CNS..411      1.000000
    x...2411  UC..2411      1.000000
    x...2412  CNS..048      1.000000   CNS..411     -1.000000
    x...2412  UC..2412      1.000000
    x...2413  CNS..020      1.000000   CNS..412     -1.000000
    x...2413  UC..2413      1.000000
    x...2414  CNS..007      1.000000   CNS..412     -1.000000
    x...2414  UC..2414      1.000000
    x...2415  CNS..012     -1.000000   CNS..410      1.000000
    x...2415  UC..2415      1.000000
    x...2416  CNS..012      1.000000   CNS..410     -1.000000
    x...2416  UC..2416      1.000000
    x...2417  CNS..260      1.000000   CNS..409     -1.000000
    x...2417  UC..2417      1.000000
    x...2418  CNS..260     -1.000000   CNS..409      1.000000
    x...2418  UC..2418      1.000000
    x...2419  CNS..302      1.000000   CNS..410     -1.000000
    x...2419  UC..2419      1.000000
    x...2420  CNS..302     -1.000000   CNS..410      1.000000
    x...2420  UC..2420      1.000000
    x...2421  CNS..046      1.000000   CNS..393     -1.000000
    x...2421  UC..2421      1.000000
    x...2422  CNS..046     -1.000000   CNS..393      1.000000
    x...2422  UC..2422      1.000000
    x...2423  CNS..028     -1.000000   CNS..367      1.000000
    x...2423  UC..2423      1.000000
    x...2424  CNS..028      1.000000   CNS..367     -1.000000
    x...2424  UC..2424      1.000000
    x...2425  CNS..050      1.000000   CNS..413     -1.000000
    x...2425  UC..2425      1.000000
    x...2426  CNS..238      1.000000   CNS..413     -1.000000
    x...2426  UC..2426      1.000000
    x...2427  CNS..084      1.000000   CNS..414     -1.000000
    x...2427  UC..2427      1.000000
    x...2428  CNS..144      1.000000   CNS..414     -1.000000
    x...2428  UC..2428      1.000000
    x...2429  CNS..394      1.000000   CNS..415     -1.000000
    x...2429  UC..2429      1.000000
    x...2430  CNS..018      1.000000   CNS..415     -1.000000
    x...2430  UC..2430      1.000000
    x...2431  CNS..285     -1.000000   CNS..414      1.000000
    x...2431  UC..2431      1.000000
    x...2432  CNS..285      1.000000   CNS..414     -1.000000
    x...2432  UC..2432      1.000000
    x...2433  CNS..063      1.000000   CNS..416     -1.000000
    x...2433  UC..2433      1.000000
    x...2434  CNS..004      1.000000   CNS..416     -1.000000
    x...2434  UC..2434      1.000000
    x...2435  CNS..018     -1.000000   CNS..394      1.000000
    x...2435  UC..2435      1.000000
    x...2436  CNS..018      1.000000   CNS..394     -1.000000
    x...2436  UC..2436      1.000000
    x...2437  CNS..004     -1.000000   CNS..355      1.000000
    x...2437  UC..2437      1.000000
    x...2438  CNS..004      1.000000   CNS..355     -1.000000
    x...2438  UC..2438      1.000000
    x...2439  CNS..335     -1.000000   CNS..407      1.000000
    x...2439  UC..2439      1.000000
    x...2440  CNS..335      1.000000   CNS..407     -1.000000
    x...2440  UC..2440      1.000000
    x...2441  CNS..086     -1.000000   CNS..406      1.000000
    x...2441  UC..2441      1.000000
    x...2442  CNS..086      1.000000   CNS..406     -1.000000
    x...2442  UC..2442      1.000000
    x...2443  CNS..004     -1.000000   CNS..063      1.000000
    x...2443  UC..2443      1.000000
    x...2444  CNS..004      1.000000   CNS..063     -1.000000
    x...2444  UC..2444      1.000000
    x...2445  CNS..257     -1.000000   CNS..412      1.000000
    x...2445  UC..2445      1.000000
    x...2446  CNS..257      1.000000   CNS..412     -1.000000
    x...2446  UC..2446      1.000000
    x...2447  CNS..041     -1.000000   CNS..369      1.000000
    x...2447  UC..2447      1.000000
    x...2448  CNS..041      1.000000   CNS..369     -1.000000
    x...2448  UC..2448      1.000000
    x...2449  CNS..417     -1.000000   CNS..490      1.000000
    x...2449  UC..2449      1.000000
    x...2450  CNS..171      1.000000   CNS..417     -1.000000
    x...2450  UC..2450      1.000000
    x...2451  CNS..052      1.000000   CNS..413     -1.000000
    x...2451  UC..2451      1.000000
    x...2452  CNS..052     -1.000000   CNS..413      1.000000
    x...2452  UC..2452      1.000000
    x...2453  CNS..276      1.000000   CNS..412     -1.000000
    x...2453  UC..2453      1.000000
    x...2454  CNS..276     -1.000000   CNS..412      1.000000
    x...2454  UC..2454      1.000000
    x...2455  CNS..092      1.000000   CNS..418     -1.000000
    x...2455  UC..2455      1.000000
    x...2456  CNS..391      1.000000   CNS..418     -1.000000
    x...2456  UC..2456      1.000000
    x...2457  CNS..085      1.000000   CNS..394     -1.000000
    x...2457  UC..2457      1.000000
    x...2458  CNS..085     -1.000000   CNS..394      1.000000
    x...2458  UC..2458      1.000000
    x...2459  CNS..010     -1.000000   CNS..416      1.000000
    x...2459  UC..2459      1.000000
    x...2460  CNS..010      1.000000   CNS..416     -1.000000
    x...2460  UC..2460      1.000000
    x...2461  CNS..084      1.000000   CNS..144     -1.000000
    x...2461  UC..2461      1.000000
    x...2462  CNS..084     -1.000000   CNS..144      1.000000
    x...2462  UC..2462      1.000000
    x...2463  CNS..171     -1.000000   CNS..360      1.000000
    x...2463  UC..2463      1.000000
    x...2464  CNS..171      1.000000   CNS..360     -1.000000
    x...2464  UC..2464      1.000000
    x...2465  CNS..419     -1.000000   CNS..432      1.000000
    x...2465  UC..2465      1.000000
    x...2466  CNS..405      1.000000   CNS..419     -1.000000
    x...2466  UC..2466      1.000000
    x...2467  CNS..057      1.000000   CNS..420     -1.000000
    x...2467  UC..2467      1.000000
    x...2468  CNS..147      1.000000   CNS..420     -1.000000
    x...2468  UC..2468      1.000000
    x...2469  CNS..225      1.000000   CNS..421     -1.000000
    x...2469  UC..2469      1.000000
    x...2470  CNS..087      1.000000   CNS..421     -1.000000
    x...2470  UC..2470      1.000000
    x...2471  CNS..254      1.000000   CNS..405     -1.000000
    x...2471  UC..2471      1.000000
    x...2472  CNS..254     -1.000000   CNS..405      1.000000
    x...2472  UC..2472      1.000000
    x...2473  CNS..027     -1.000000   CNS..421      1.000000
    x...2473  UC..2473      1.000000
    x...2474  CNS..027      1.000000   CNS..421     -1.000000
    x...2474  UC..2474      1.000000
    x...2475  CNS..001      1.000000   CNS..422     -1.000000
    x...2475  UC..2475      1.000000
    x...2476  CNS..218      1.000000   CNS..422     -1.000000
    x...2476  UC..2476      1.000000
    x...2477  CNS..423     -1.000000   CNS..475      1.000000
    x...2477  UC..2477      1.000000
    x...2478  CNS..048      1.000000   CNS..423     -1.000000
    x...2478  UC..2478      1.000000
    x...2479  CNS..010     -1.000000   CNS..419      1.000000
    x...2479  UC..2479      1.000000
    x...2480  CNS..010      1.000000   CNS..419     -1.000000
    x...2480  UC..2480      1.000000
    x...2481  CNS..115      1.000000   CNS..424     -1.000000
    x...2481  UC..2481      1.000000
    x...2482  CNS..003      1.000000   CNS..424     -1.000000
    x...2482  UC..2482      1.000000
    x...2483  CNS..023     -1.000000   CNS..458      1.000000
    x...2483  UC..2483      1.000000
    x...2484  CNS..390     -1.000000   CNS..458      1.000000
    x...2484  UC..2484      1.000000
    x...2485  CNS..056      1.000000   CNS..425     -1.000000
    x...2485  UC..2485      1.000000
    x...2486  CNS..008      1.000000   CNS..425     -1.000000
    x...2486  UC..2486      1.000000
    x...2487  CNS..087      1.000000   CNS..225     -1.000000
    x...2487  UC..2487      1.000000
    x...2488  CNS..087     -1.000000   CNS..225      1.000000
    x...2488  UC..2488      1.000000
    x...2489  CNS..007      1.000000   CNS..042     -1.000000
    x...2489  UC..2489      1.000000
    x...2490  CNS..007     -1.000000   CNS..042      1.000000
    x...2490  UC..2490      1.000000
    x...2491  CNS..367      1.000000   CNS..392     -1.000000
    x...2491  UC..2491      1.000000
    x...2492  CNS..367     -1.000000   CNS..392      1.000000
    x...2492  UC..2492      1.000000
    x...2493  CNS..092     -1.000000   CNS..391      1.000000
    x...2493  UC..2493      1.000000
    x...2494  CNS..092      1.000000   CNS..391     -1.000000
    x...2494  UC..2494      1.000000
    x...2495  CNS..057     -1.000000   CNS..147      1.000000
    x...2495  UC..2495      1.000000
    x...2496  CNS..057      1.000000   CNS..147     -1.000000
    x...2496  UC..2496      1.000000
    x...2497  CNS..164      1.000000   CNS..197     -1.000000
    x...2497  UC..2497      1.000000
    x...2498  CNS..164     -1.000000   CNS..197      1.000000
    x...2498  UC..2498      1.000000
    x...2499  CNS..028      1.000000   CNS..426     -1.000000
    x...2499  UC..2499      1.000000
    x...2500  CNS..248      1.000000   CNS..426     -1.000000
    x...2500  UC..2500      1.000000
    x...2501  CNS..042     -1.000000   CNS..418      1.000000
    x...2501  UC..2501      1.000000
    x...2502  CNS..042      1.000000   CNS..418     -1.000000
    x...2502  UC..2502      1.000000
    x...2503  CNS..182      1.000000   CNS..431     -1.000000
    x...2503  UC..2503      1.000000
    x...2504  CNS..182     -1.000000   CNS..431      1.000000
    x...2504  UC..2504      1.000000
    x...2505  CNS..275      1.000000   CNS..422     -1.000000
    x...2505  UC..2505      1.000000
    x...2506  CNS..275     -1.000000   CNS..422      1.000000
    x...2506  UC..2506      1.000000
    x...2507  CNS..055     -1.000000   CNS..426      1.000000
    x...2507  UC..2507      1.000000
    x...2508  CNS..055      1.000000   CNS..426     -1.000000
    x...2508  UC..2508      1.000000
    x...2509  CNS..203      1.000000   CNS..427     -1.000000
    x...2509  UC..2509      1.000000
    x...2510  CNS..022      1.000000   CNS..427     -1.000000
    x...2510  UC..2510      1.000000
    x...2511  CNS..332     -1.000000   CNS..406      1.000000
    x...2511  UC..2511      1.000000
    x...2512  CNS..332      1.000000   CNS..406     -1.000000
    x...2512  UC..2512      1.000000
    x...2513  CNS..010      1.000000   CNS..254     -1.000000
    x...2513  UC..2513      1.000000
    x...2514  CNS..010     -1.000000   CNS..254      1.000000
    x...2514  UC..2514      1.000000
    x...2515  CNS..022      1.000000   CNS..203     -1.000000
    x...2515  UC..2515      1.000000
    x...2516  CNS..022     -1.000000   CNS..203      1.000000
    x...2516  UC..2516      1.000000
    x...2517  CNS..001     -1.000000   CNS..218      1.000000
    x...2517  UC..2517      1.000000
    x...2518  CNS..001      1.000000   CNS..218     -1.000000
    x...2518  UC..2518      1.000000
    x...2519  CNS..050      1.000000   CNS..428     -1.000000
    x...2519  UC..2519      1.000000
    x...2520  CNS..064      1.000000   CNS..428     -1.000000
    x...2520  UC..2520      1.000000
    x...2521  CNS..213      1.000000   CNS..429     -1.000000
    x...2521  UC..2521      1.000000
    x...2522  CNS..400      1.000000   CNS..429     -1.000000
    x...2522  UC..2522      1.000000
    x...2523  CNS..177      1.000000   CNS..427     -1.000000
    x...2523  UC..2523      1.000000
    x...2524  CNS..177     -1.000000   CNS..427      1.000000
    x...2524  UC..2524      1.000000
    x...2525  CNS..006     -1.000000   CNS..424      1.000000
    x...2525  UC..2525      1.000000
    x...2526  CNS..006      1.000000   CNS..424     -1.000000
    x...2526  UC..2526      1.000000
    x...2527  CNS..092      1.000000   CNS..430     -1.000000
    x...2527  UC..2527      1.000000
    x...2528  CNS..042      1.000000   CNS..430     -1.000000
    x...2528  UC..2528      1.000000
    x...2529  CNS..413     -1.000000   CNS..465      1.000000
    x...2529  UC..2529      1.000000
    x...2530  CNS..324     -1.000000   CNS..465      1.000000
    x...2530  UC..2530      1.000000
    x...2531  CNS..411      1.000000   CNS..416     -1.000000
    x...2531  UC..2531      1.000000
    x...2532  CNS..411     -1.000000   CNS..416      1.000000
    x...2532  UC..2532      1.000000
    x...2533  CNS..346      1.000000   CNS..399     -1.000000
    x...2533  UC..2533      1.000000
    x...2534  CNS..346     -1.000000   CNS..399      1.000000
    x...2534  UC..2534      1.000000
    x...2535  CNS..424     -1.000000   CNS..476      1.000000
    x...2535  UC..2535      1.000000
    x...2536  CNS..424      1.000000   CNS..476     -1.000000
    x...2536  UC..2536      1.000000
    x...2537  CNS..404      1.000000   CNS..431     -1.000000
    x...2537  UC..2537      1.000000
    x...2538  CNS..002      1.000000   CNS..431     -1.000000
    x...2538  UC..2538      1.000000
    x...2539  CNS..042     -1.000000   CNS..092      1.000000
    x...2539  UC..2539      1.000000
    x...2540  CNS..042      1.000000   CNS..092     -1.000000
    x...2540  UC..2540      1.000000
    x...2541  CNS..028     -1.000000   CNS..248      1.000000
    x...2541  UC..2541      1.000000
    x...2542  CNS..028      1.000000   CNS..248     -1.000000
    x...2542  UC..2542      1.000000
    x...2543  CNS..112     -1.000000   CNS..431      1.000000
    x...2543  UC..2543      1.000000
    x...2544  CNS..112      1.000000   CNS..431     -1.000000
    x...2544  UC..2544      1.000000
    x...2545  CNS..025      1.000000   CNS..400     -1.000000
    x...2545  UC..2545      1.000000
    x...2546  CNS..025     -1.000000   CNS..400      1.000000
    x...2546  UC..2546      1.000000
    x...2547  CNS..004     -1.000000   CNS..423      1.000000
    x...2547  UC..2547      1.000000
    x...2548  CNS..004      1.000000   CNS..423     -1.000000
    x...2548  UC..2548      1.000000
    x...2549  CNS..019     -1.000000   CNS..497      1.000000
    x...2549  UC..2549      1.000000
    x...2550  CNS..429     -1.000000   CNS..497      1.000000
    x...2550  UC..2550      1.000000
    x...2551  CNS..254      1.000000   CNS..432     -1.000000
    x...2551  UC..2551      1.000000
    x...2552  CNS..419      1.000000   CNS..432     -1.000000
    x...2552  UC..2552      1.000000
    x...2553  CNS..408     -1.000000   CNS..434      1.000000
    x...2553  UC..2553      1.000000
    x...2554  CNS..408      1.000000   CNS..434     -1.000000
    x...2554  UC..2554      1.000000
    x...2555  CNS..170     -1.000000   CNS..415      1.000000
    x...2555  UC..2555      1.000000
    x...2556  CNS..170      1.000000   CNS..415     -1.000000
    x...2556  UC..2556      1.000000
    x...2557  CNS..027      1.000000   CNS..428     -1.000000
    x...2557  UC..2557      1.000000
    x...2558  CNS..027     -1.000000   CNS..428      1.000000
    x...2558  UC..2558      1.000000
    x...2559  CNS..050     -1.000000   CNS..064      1.000000
    x...2559  UC..2559      1.000000
    x...2560  CNS..050      1.000000   CNS..064     -1.000000
    x...2560  UC..2560      1.000000
    x...2561  CNS..254     -1.000000   CNS..419      1.000000
    x...2561  UC..2561      1.000000
    x...2562  CNS..254      1.000000   CNS..419     -1.000000
    x...2562  UC..2562      1.000000
    x...2563  CNS..325     -1.000000   CNS..430      1.000000
    x...2563  UC..2563      1.000000
    x...2564  CNS..325      1.000000   CNS..430     -1.000000
    x...2564  UC..2564      1.000000
    x...2565  CNS..182     -1.000000   CNS..404      1.000000
    x...2565  UC..2565      1.000000
    x...2566  CNS..182      1.000000   CNS..404     -1.000000
    x...2566  UC..2566      1.000000
    x...2567  CNS..072      1.000000   CNS..433     -1.000000
    x...2567  UC..2567      1.000000
    x...2568  CNS..009      1.000000   CNS..433     -1.000000
    x...2568  UC..2568      1.000000
    x...2569  CNS..369      1.000000   CNS..434     -1.000000
    x...2569  UC..2569      1.000000
    x...2570  CNS..270      1.000000   CNS..434     -1.000000
    x...2570  UC..2570      1.000000
    x...2571  CNS..004     -1.000000   CNS..433      1.000000
    x...2571  UC..2571      1.000000
    x...2572  CNS..004      1.000000   CNS..433     -1.000000
    x...2572  UC..2572      1.000000
    x...2573  CNS..008     -1.000000   CNS..056      1.000000
    x...2573  UC..2573      1.000000
    x...2574  CNS..008      1.000000   CNS..056     -1.000000
    x...2574  UC..2574      1.000000
    x...2575  CNS..316     -1.000000   CNS..425      1.000000
    x...2575  UC..2575      1.000000
    x...2576  CNS..316      1.000000   CNS..425     -1.000000
    x...2576  UC..2576      1.000000
    x...2577  CNS..317      1.000000   CNS..435     -1.000000
    x...2577  UC..2577      1.000000
    x...2578  CNS..003      1.000000   CNS..435     -1.000000
    x...2578  UC..2578      1.000000
    x...2579  CNS..048      1.000000   CNS..267     -1.000000
    x...2579  UC..2579      1.000000
    x...2580  CNS..048     -1.000000   CNS..267      1.000000
    x...2580  UC..2580      1.000000
    x...2581  CNS..264      1.000000   CNS..417     -1.000000
    x...2581  UC..2581      1.000000
    x...2582  CNS..264     -1.000000   CNS..417      1.000000
    x...2582  UC..2582      1.000000
    x...2583  CNS..059      1.000000   CNS..436     -1.000000
    x...2583  UC..2583      1.000000
    x...2584  CNS..143      1.000000   CNS..436     -1.000000
    x...2584  UC..2584      1.000000
    x...2585  CNS..023      1.000000   CNS..437     -1.000000
    x...2585  UC..2585      1.000000
    x...2586  CNS..126      1.000000   CNS..437     -1.000000
    x...2586  UC..2586      1.000000
    x...2587  CNS..061      1.000000   CNS..437     -1.000000
    x...2587  UC..2587      1.000000
    x...2588  CNS..061     -1.000000   CNS..437      1.000000
    x...2588  UC..2588      1.000000
    x...2589  CNS..008      1.000000   CNS..438     -1.000000
    x...2589  UC..2589      1.000000
    x...2590  CNS..243      1.000000   CNS..438     -1.000000
    x...2590  UC..2590      1.000000
    x...2591  CNS..041      1.000000   CNS..439     -1.000000
    x...2591  UC..2591      1.000000
    x...2592  CNS..081      1.000000   CNS..439     -1.000000
    x...2592  UC..2592      1.000000
    x...2593  CNS..059     -1.000000   CNS..143      1.000000
    x...2593  UC..2593      1.000000
    x...2594  CNS..059      1.000000   CNS..143     -1.000000
    x...2594  UC..2594      1.000000
    x...2595  CNS..343      1.000000   CNS..440     -1.000000
    x...2595  UC..2595      1.000000
    x...2596  CNS..002      1.000000   CNS..440     -1.000000
    x...2596  UC..2596      1.000000
    x...2597  CNS..263     -1.000000   CNS..437      1.000000
    x...2597  UC..2597      1.000000
    x...2598  CNS..263      1.000000   CNS..437     -1.000000
    x...2598  UC..2598      1.000000
    x...2599  CNS..069      1.000000   CNS..438     -1.000000
    x...2599  UC..2599      1.000000
    x...2600  CNS..069     -1.000000   CNS..438      1.000000
    x...2600  UC..2600      1.000000
    x...2601  CNS..070      1.000000   CNS..441     -1.000000
    x...2601  UC..2601      1.000000
    x...2602  CNS..145      1.000000   CNS..441     -1.000000
    x...2602  UC..2602      1.000000
    x...2603  CNS..345      1.000000   CNS..442     -1.000000
    x...2603  UC..2603      1.000000
    x...2604  CNS..176      1.000000   CNS..442     -1.000000
    x...2604  UC..2604      1.000000
    x...2605  CNS..210      1.000000   CNS..443     -1.000000
    x...2605  UC..2605      1.000000
    x...2606  CNS..044      1.000000   CNS..443     -1.000000
    x...2606  UC..2606      1.000000
    x...2607  CNS..340     -1.000000   CNS..443      1.000000
    x...2607  UC..2607      1.000000
    x...2608  CNS..340      1.000000   CNS..443     -1.000000
    x...2608  UC..2608      1.000000
    x...2609  CNS..270      1.000000   CNS..369     -1.000000
    x...2609  UC..2609      1.000000
    x...2610  CNS..270     -1.000000   CNS..369      1.000000
    x...2610  UC..2610      1.000000
    x...2611  CNS..022     -1.000000   CNS..442      1.000000
    x...2611  UC..2611      1.000000
    x...2612  CNS..022      1.000000   CNS..442     -1.000000
    x...2612  UC..2612      1.000000
    x...2613  CNS..004      1.000000   CNS..443     -1.000000
    x...2613  UC..2613      1.000000
    x...2614  CNS..004     -1.000000   CNS..443      1.000000
    x...2614  UC..2614      1.000000
    x...2615  CNS..003     -1.000000   CNS..317      1.000000
    x...2615  UC..2615      1.000000
    x...2616  CNS..003      1.000000   CNS..317     -1.000000
    x...2616  UC..2616      1.000000
    x...2617  CNS..006     -1.000000   CNS..435      1.000000
    x...2617  UC..2617      1.000000
    x...2618  CNS..006      1.000000   CNS..435     -1.000000
    x...2618  UC..2618      1.000000
    x...2619  CNS..041      1.000000   CNS..081     -1.000000
    x...2619  UC..2619      1.000000
    x...2620  CNS..041     -1.000000   CNS..081      1.000000
    x...2620  UC..2620      1.000000
    x...2621  CNS..004      1.000000   CNS..444     -1.000000
    x...2621  UC..2621      1.000000
    x...2622  CNS..209      1.000000   CNS..444     -1.000000
    x...2622  UC..2622      1.000000
    x...2623  CNS..176      1.000000   CNS..345     -1.000000
    x...2623  UC..2623      1.000000
    x...2624  CNS..176     -1.000000   CNS..345      1.000000
    x...2624  UC..2624      1.000000
    x...2625  CNS..008      1.000000   CNS..445     -1.000000
    x...2625  UC..2625      1.000000
    x...2626  CNS..151      1.000000   CNS..445     -1.000000
    x...2626  UC..2626      1.000000
    x...2627  CNS..046     -1.000000   CNS..438      1.000000
    x...2627  UC..2627      1.000000
    x...2628  CNS..046      1.000000   CNS..438     -1.000000
    x...2628  UC..2628      1.000000
    x...2629  CNS..010      1.000000   CNS..432     -1.000000
    x...2629  UC..2629      1.000000
    x...2630  CNS..010     -1.000000   CNS..432      1.000000
    x...2630  UC..2630      1.000000
    x...2631  CNS..002      1.000000   CNS..446     -1.000000
    x...2631  UC..2631      1.000000
    x...2632  CNS..446     -1.000000   CNS..456      1.000000
    x...2632  UC..2632      1.000000
    x...2633  CNS..217      1.000000   CNS..447     -1.000000
    x...2633  UC..2633      1.000000
    x...2634  CNS..005      1.000000   CNS..447     -1.000000
    x...2634  UC..2634      1.000000
    x...2635  CNS..002      1.000000   CNS..343     -1.000000
    x...2635  UC..2635      1.000000
    x...2636  CNS..002     -1.000000   CNS..343      1.000000
    x...2636  UC..2636      1.000000
    x...2637  CNS..130     -1.000000   CNS..462      1.000000
    x...2637  UC..2637      1.000000
    x...2638  CNS..439     -1.000000   CNS..462      1.000000
    x...2638  UC..2638      1.000000
    x...2639  CNS..405      1.000000   CNS..448     -1.000000
    x...2639  UC..2639      1.000000
    x...2640  CNS..069      1.000000   CNS..448     -1.000000
    x...2640  UC..2640      1.000000
    x...2641  CNS..186      1.000000   CNS..449     -1.000000
    x...2641  UC..2641      1.000000
    x...2642  CNS..002      1.000000   CNS..449     -1.000000
    x...2642  UC..2642      1.000000
    x...2643  CNS..282      1.000000   CNS..447     -1.000000
    x...2643  UC..2643      1.000000
    x...2644  CNS..282     -1.000000   CNS..447      1.000000
    x...2644  UC..2644      1.000000
    x...2645  CNS..409      1.000000   CNS..450     -1.000000
    x...2645  UC..2645      1.000000
    x...2646  CNS..164      1.000000   CNS..450     -1.000000
    x...2646  UC..2646      1.000000
    x...2647  CNS..046     -1.000000   CNS..445      1.000000
    x...2647  UC..2647      1.000000
    x...2648  CNS..046      1.000000   CNS..445     -1.000000
    x...2648  UC..2648      1.000000
    x...2649  CNS..194      1.000000   CNS..451     -1.000000
    x...2649  UC..2649      1.000000
    x...2650  CNS..113      1.000000   CNS..451     -1.000000
    x...2650  UC..2650      1.000000
    x...2651  CNS..028     -1.000000   CNS..449      1.000000
    x...2651  UC..2651      1.000000
    x...2652  CNS..028      1.000000   CNS..449     -1.000000
    x...2652  UC..2652      1.000000
    x...2653  CNS..260     -1.000000   CNS..450      1.000000
    x...2653  UC..2653      1.000000
    x...2654  CNS..260      1.000000   CNS..450     -1.000000
    x...2654  UC..2654      1.000000
    x...2655  CNS..338      1.000000   CNS..440     -1.000000
    x...2655  UC..2655      1.000000
    x...2656  CNS..338     -1.000000   CNS..440      1.000000
    x...2656  UC..2656      1.000000
    x...2657  CNS..015      1.000000   CNS..420     -1.000000
    x...2657  UC..2657      1.000000
    x...2658  CNS..015     -1.000000   CNS..420      1.000000
    x...2658  UC..2658      1.000000
    x...2659  CNS..005     -1.000000   CNS..217      1.000000
    x...2659  UC..2659      1.000000
    x...2660  CNS..005      1.000000   CNS..217     -1.000000
    x...2660  UC..2660      1.000000
    x...2661  CNS..002      1.000000   CNS..083     -1.000000
    x...2661  UC..2661      1.000000
    x...2662  CNS..002     -1.000000   CNS..083      1.000000
    x...2662  UC..2662      1.000000
    x...2663  CNS..197      1.000000   CNS..450     -1.000000
    x...2663  UC..2663      1.000000
    x...2664  CNS..197     -1.000000   CNS..450      1.000000
    x...2664  UC..2664      1.000000
    x...2665  CNS..113      1.000000   CNS..194     -1.000000
    x...2665  UC..2665      1.000000
    x...2666  CNS..113     -1.000000   CNS..194      1.000000
    x...2666  UC..2666      1.000000
    x...2667  CNS..378      1.000000   CNS..452     -1.000000
    x...2667  UC..2667      1.000000
    x...2668  CNS..024      1.000000   CNS..452     -1.000000
    x...2668  UC..2668      1.000000
    x...2669  CNS..058      1.000000   CNS..451     -1.000000
    x...2669  UC..2669      1.000000
    x...2670  CNS..058     -1.000000   CNS..451      1.000000
    x...2670  UC..2670      1.000000
    x...2671  CNS..091      1.000000   CNS..453     -1.000000
    x...2671  UC..2671      1.000000
    x...2672  CNS..123      1.000000   CNS..453     -1.000000
    x...2672  UC..2672      1.000000
    x...2673  CNS..006      1.000000   CNS..454     -1.000000
    x...2673  UC..2673      1.000000
    x...2674  CNS..005      1.000000   CNS..454     -1.000000
    x...2674  UC..2674      1.000000
    x...2675  CNS..025      1.000000   CNS..429     -1.000000
    x...2675  UC..2675      1.000000
    x...2676  CNS..025     -1.000000   CNS..429      1.000000
    x...2676  UC..2676      1.000000
    x...2677  CNS..011     -1.000000   CNS..445      1.000000
    x...2677  UC..2677      1.000000
    x...2678  CNS..011      1.000000   CNS..445     -1.000000
    x...2678  UC..2678      1.000000
    x...2679  CNS..254      1.000000   CNS..448     -1.000000
    x...2679  UC..2679      1.000000
    x...2680  CNS..254     -1.000000   CNS..448      1.000000
    x...2680  UC..2680      1.000000
    x...2681  CNS..082     -1.000000   CNS..444      1.000000
    x...2681  UC..2681      1.000000
    x...2682  CNS..082      1.000000   CNS..444     -1.000000
    x...2682  UC..2682      1.000000
    x...2683  CNS..004      1.000000   CNS..209     -1.000000
    x...2683  UC..2683      1.000000
    x...2684  CNS..004     -1.000000   CNS..209      1.000000
    x...2684  UC..2684      1.000000
    x...2685  CNS..007      1.000000   CNS..455     -1.000000
    x...2685  UC..2685      1.000000
    x...2686  CNS..253      1.000000   CNS..455     -1.000000
    x...2686  UC..2686      1.000000
    x...2687  CNS..446      1.000000   CNS..456     -1.000000
    x...2687  UC..2687      1.000000
    x...2688  CNS..083      1.000000   CNS..456     -1.000000
    x...2688  UC..2688      1.000000
    x...2689  CNS..317     -1.000000   CNS..454      1.000000
    x...2689  UC..2689      1.000000
    x...2690  CNS..317      1.000000   CNS..454     -1.000000
    x...2690  UC..2690      1.000000
    x...2691  CNS..031      1.000000   CNS..457     -1.000000
    x...2691  UC..2691      1.000000
    x...2692  CNS..137      1.000000   CNS..457     -1.000000
    x...2692  UC..2692      1.000000
    x...2693  CNS..024      1.000000   CNS..378     -1.000000
    x...2693  UC..2693      1.000000
    x...2694  CNS..024     -1.000000   CNS..378      1.000000
    x...2694  UC..2694      1.000000
    x...2695  CNS..005     -1.000000   CNS..006      1.000000
    x...2695  UC..2695      1.000000
    x...2696  CNS..005      1.000000   CNS..006     -1.000000
    x...2696  UC..2696      1.000000
    x...2697  CNS..070     -1.000000   CNS..145      1.000000
    x...2697  UC..2697      1.000000
    x...2698  CNS..070      1.000000   CNS..145     -1.000000
    x...2698  UC..2698      1.000000
    x...2699  CNS..390      1.000000   CNS..458     -1.000000
    x...2699  UC..2699      1.000000
    x...2700  CNS..023      1.000000   CNS..458     -1.000000
    x...2700  UC..2700      1.000000
    x...2701  CNS..384     -1.000000   CNS..457      1.000000
    x...2701  UC..2701      1.000000
    x...2702  CNS..384      1.000000   CNS..457     -1.000000
    x...2702  UC..2702      1.000000
    x...2703  CNS..027      1.000000   CNS..459     -1.000000
    x...2703  UC..2703      1.000000
    x...2704  CNS..095      1.000000   CNS..459     -1.000000
    x...2704  UC..2704      1.000000
    x...2705  CNS..269      1.000000   CNS..457     -1.000000
    x...2705  UC..2705      1.000000
    x...2706  CNS..269     -1.000000   CNS..457      1.000000
    x...2706  UC..2706      1.000000
    x...2707  CNS..362      1.000000   CNS..459     -1.000000
    x...2707  UC..2707      1.000000
    x...2708  CNS..362     -1.000000   CNS..459      1.000000
    x...2708  UC..2708      1.000000
    x...2709  CNS..083     -1.000000   CNS..469      1.000000
    x...2709  UC..2709      1.000000
    x...2710  CNS..002     -1.000000   CNS..469      1.000000
    x...2710  UC..2710      1.000000
    x...2711  CNS..098      1.000000   CNS..460     -1.000000
    x...2711  UC..2711      1.000000
    x...2712  CNS..057      1.000000   CNS..460     -1.000000
    x...2712  UC..2712      1.000000
    x...2713  CNS..056      1.000000   CNS..461     -1.000000
    x...2713  UC..2713      1.000000
    x...2714  CNS..014      1.000000   CNS..461     -1.000000
    x...2714  UC..2714      1.000000
    x...2715  CNS..057     -1.000000   CNS..098      1.000000
    x...2715  UC..2715      1.000000
    x...2716  CNS..057      1.000000   CNS..098     -1.000000
    x...2716  UC..2716      1.000000
    x...2717  CNS..439      1.000000   CNS..462     -1.000000
    x...2717  UC..2717      1.000000
    x...2718  CNS..130      1.000000   CNS..462     -1.000000
    x...2718  UC..2718      1.000000
    x...2719  CNS..002     -1.000000   CNS..458      1.000000
    x...2719  UC..2719      1.000000
    x...2720  CNS..002      1.000000   CNS..458     -1.000000
    x...2720  UC..2720      1.000000
    x...2721  CNS..004     -1.000000   CNS..460      1.000000
    x...2721  UC..2721      1.000000
    x...2722  CNS..004      1.000000   CNS..460     -1.000000
    x...2722  UC..2722      1.000000
    x...2723  CNS..091      1.000000   CNS..123     -1.000000
    x...2723  UC..2723      1.000000
    x...2724  CNS..091     -1.000000   CNS..123      1.000000
    x...2724  UC..2724      1.000000
    x...2725  CNS..073      1.000000   CNS..459     -1.000000
    x...2725  UC..2725      1.000000
    x...2726  CNS..073     -1.000000   CNS..459      1.000000
    x...2726  UC..2726      1.000000
    x...2727  CNS..023     -1.000000   CNS..455      1.000000
    x...2727  UC..2727      1.000000
    x...2728  CNS..023      1.000000   CNS..455     -1.000000
    x...2728  UC..2728      1.000000
    x...2729  CNS..008     -1.000000   CNS..461      1.000000
    x...2729  UC..2729      1.000000
    x...2730  CNS..008      1.000000   CNS..461     -1.000000
    x...2730  UC..2730      1.000000
    x...2731  CNS..130      1.000000   CNS..439     -1.000000
    x...2731  UC..2731      1.000000
    x...2732  CNS..130     -1.000000   CNS..439      1.000000
    x...2732  UC..2732      1.000000
    x...2733  CNS..253      1.000000   CNS..458     -1.000000
    x...2733  UC..2733      1.000000
    x...2734  CNS..253     -1.000000   CNS..458      1.000000
    x...2734  UC..2734      1.000000
    x...2735  CNS..062      1.000000   CNS..463     -1.000000
    x...2735  UC..2735      1.000000
    x...2736  CNS..003      1.000000   CNS..463     -1.000000
    x...2736  UC..2736      1.000000
    x...2737  CNS..041      1.000000   CNS..434     -1.000000
    x...2737  UC..2737      1.000000
    x...2738  CNS..041     -1.000000   CNS..434      1.000000
    x...2738  UC..2738      1.000000
    x...2739  CNS..071     -1.000000   CNS..463      1.000000
    x...2739  UC..2739      1.000000
    x...2740  CNS..071      1.000000   CNS..463     -1.000000
    x...2740  UC..2740      1.000000
    x...2741  CNS..007     -1.000000   CNS..253      1.000000
    x...2741  UC..2741      1.000000
    x...2742  CNS..007      1.000000   CNS..253     -1.000000
    x...2742  UC..2742      1.000000
    x...2743  CNS..010     -1.000000   CNS..448      1.000000
    x...2743  UC..2743      1.000000
    x...2744  CNS..010      1.000000   CNS..448     -1.000000
    x...2744  UC..2744      1.000000
    x...2745  CNS..241      1.000000   CNS..464     -1.000000
    x...2745  UC..2745      1.000000
    x...2746  CNS..018      1.000000   CNS..464     -1.000000
    x...2746  UC..2746      1.000000
    x...2747  CNS..068     -1.000000   CNS..436      1.000000
    x...2747  UC..2747      1.000000
    x...2748  CNS..068      1.000000   CNS..436     -1.000000
    x...2748  UC..2748      1.000000
    x...2749  CNS..289      1.000000   CNS..453     -1.000000
    x...2749  UC..2749      1.000000
    x...2750  CNS..289     -1.000000   CNS..453      1.000000
    x...2750  UC..2750      1.000000
    x...2751  CNS..041      1.000000   CNS..462     -1.000000
    x...2751  UC..2751      1.000000
    x...2752  CNS..041     -1.000000   CNS..462      1.000000
    x...2752  UC..2752      1.000000
    x...2753  CNS..083     -1.000000   CNS..446      1.000000
    x...2753  UC..2753      1.000000
    x...2754  CNS..083      1.000000   CNS..446     -1.000000
    x...2754  UC..2754      1.000000
    x...2755  CNS..324      1.000000   CNS..465     -1.000000
    x...2755  UC..2755      1.000000
    x...2756  CNS..413      1.000000   CNS..465     -1.000000
    x...2756  UC..2756      1.000000
    x...2757  CNS..122      1.000000   CNS..466     -1.000000
    x...2757  UC..2757      1.000000
    x...2758  CNS..126      1.000000   CNS..466     -1.000000
    x...2758  UC..2758      1.000000
    x...2759  CNS..050     -1.000000   CNS..465      1.000000
    x...2759  UC..2759      1.000000
    x...2760  CNS..050      1.000000   CNS..465     -1.000000
    x...2760  UC..2760      1.000000
    x...2761  CNS..044      1.000000   CNS..466     -1.000000
    x...2761  UC..2761      1.000000
    x...2762  CNS..044     -1.000000   CNS..466      1.000000
    x...2762  UC..2762      1.000000
    x...2763  CNS..051      1.000000   CNS..452     -1.000000
    x...2763  UC..2763      1.000000
    x...2764  CNS..051     -1.000000   CNS..452      1.000000
    x...2764  UC..2764      1.000000
    x...2765  CNS..324     -1.000000   CNS..413      1.000000
    x...2765  UC..2765      1.000000
    x...2766  CNS..324      1.000000   CNS..413     -1.000000
    x...2766  UC..2766      1.000000
    x...2767  CNS..157      1.000000   CNS..467     -1.000000
    x...2767  UC..2767      1.000000
    x...2768  CNS..241      1.000000   CNS..467     -1.000000
    x...2768  UC..2768      1.000000
    x...2769  CNS..009     -1.000000   CNS..072      1.000000
    x...2769  UC..2769      1.000000
    x...2770  CNS..009      1.000000   CNS..072     -1.000000
    x...2770  UC..2770      1.000000
    x...2771  CNS..033     -1.000000   CNS..441      1.000000
    x...2771  UC..2771      1.000000
    x...2772  CNS..033      1.000000   CNS..441     -1.000000
    x...2772  UC..2772      1.000000
    x...2773  CNS..127      1.000000   CNS..461     -1.000000
    x...2773  UC..2773      1.000000
    x...2774  CNS..127     -1.000000   CNS..461      1.000000
    x...2774  UC..2774      1.000000
    x...2775  CNS..003     -1.000000   CNS..062      1.000000
    x...2775  UC..2775      1.000000
    x...2776  CNS..003      1.000000   CNS..062     -1.000000
    x...2776  UC..2776      1.000000
    x...2777  CNS..256      1.000000   CNS..468     -1.000000
    x...2777  UC..2777      1.000000
    x...2778  CNS..047      1.000000   CNS..468     -1.000000
    x...2778  UC..2778      1.000000
    x...2779  CNS..122      1.000000   CNS..126     -1.000000
    x...2779  UC..2779      1.000000
    x...2780  CNS..122     -1.000000   CNS..126      1.000000
    x...2780  UC..2780      1.000000
    x...2781  CNS..002      1.000000   CNS..469     -1.000000
    x...2781  UC..2781      1.000000
    x...2782  CNS..083      1.000000   CNS..469     -1.000000
    x...2782  UC..2782      1.000000
    x...2783  CNS..470     -1.000000   CNS..477      1.000000
    x...2783  UC..2783      1.000000
    x...2784  CNS..010      1.000000   CNS..470     -1.000000
    x...2784  UC..2784      1.000000
    x...2785  CNS..336     -1.000000   CNS..468      1.000000
    x...2785  UC..2785      1.000000
    x...2786  CNS..336      1.000000   CNS..468     -1.000000
    x...2786  UC..2786      1.000000
    x...2787  CNS..021     -1.000000   CNS..469      1.000000
    x...2787  UC..2787      1.000000
    x...2788  CNS..021      1.000000   CNS..469     -1.000000
    x...2788  UC..2788      1.000000
    x...2789  CNS..002     -1.000000   CNS..186      1.000000
    x...2789  UC..2789      1.000000
    x...2790  CNS..002      1.000000   CNS..186     -1.000000
    x...2790  UC..2790      1.000000
    x...2791  CNS..026      1.000000   CNS..471     -1.000000
    x...2791  UC..2791      1.000000
    x...2792  CNS..128      1.000000   CNS..471     -1.000000
    x...2792  UC..2792      1.000000
    x...2793  CNS..172      1.000000   CNS..468     -1.000000
    x...2793  UC..2793      1.000000
    x...2794  CNS..172     -1.000000   CNS..468      1.000000
    x...2794  UC..2794      1.000000
    x...2795  CNS..060      1.000000   CNS..472     -1.000000
    x...2795  UC..2795      1.000000
    x...2796  CNS..141      1.000000   CNS..472     -1.000000
    x...2796  UC..2796      1.000000
    x...2797  CNS..001      1.000000   CNS..472     -1.000000
    x...2797  UC..2797      1.000000
    x...2798  CNS..001     -1.000000   CNS..472      1.000000
    x...2798  UC..2798      1.000000
    x...2799  CNS..090      1.000000   CNS..467     -1.000000
    x...2799  UC..2799      1.000000
    x...2800  CNS..090     -1.000000   CNS..467      1.000000
    x...2800  UC..2800      1.000000
    x...2801  CNS..219      1.000000   CNS..470     -1.000000
    x...2801  UC..2801      1.000000
    x...2802  CNS..219     -1.000000   CNS..470      1.000000
    x...2802  UC..2802      1.000000
    x...2803  CNS..108      1.000000   CNS..471     -1.000000
    x...2803  UC..2803      1.000000
    x...2804  CNS..108     -1.000000   CNS..471      1.000000
    x...2804  UC..2804      1.000000
    x...2805  CNS..010      1.000000   CNS..049     -1.000000
    x...2805  UC..2805      1.000000
    x...2806  CNS..010     -1.000000   CNS..049      1.000000
    x...2806  UC..2806      1.000000
    x...2807  CNS..024      1.000000   CNS..472     -1.000000
    x...2807  UC..2807      1.000000
    x...2808  CNS..024     -1.000000   CNS..472      1.000000
    x...2808  UC..2808      1.000000
    x...2809  CNS..473     -1.000000   CNS..476      1.000000
    x...2809  UC..2809      1.000000
    x...2810  CNS..211      1.000000   CNS..473     -1.000000
    x...2810  UC..2810      1.000000
    x...2811  CNS..003     -1.000000   CNS..473      1.000000
    x...2811  UC..2811      1.000000
    x...2812  CNS..003      1.000000   CNS..473     -1.000000
    x...2812  UC..2812      1.000000
    x...2813  CNS..002      1.000000   CNS..456     -1.000000
    x...2813  UC..2813      1.000000
    x...2814  CNS..002     -1.000000   CNS..456      1.000000
    x...2814  UC..2814      1.000000
    x...2815  CNS..061      1.000000   CNS..474     -1.000000
    x...2815  UC..2815      1.000000
    x...2816  CNS..044      1.000000   CNS..474     -1.000000
    x...2816  UC..2816      1.000000
    x...2817  CNS..044      1.000000   CNS..061     -1.000000
    x...2817  UC..2817      1.000000
    x...2818  CNS..044     -1.000000   CNS..061      1.000000
    x...2818  UC..2818      1.000000
    x...2819  CNS..122      1.000000   CNS..474     -1.000000
    x...2819  UC..2819      1.000000
    x...2820  CNS..122     -1.000000   CNS..474      1.000000
    x...2820  UC..2820      1.000000
    x...2821  CNS..446     -1.000000   CNS..469      1.000000
    x...2821  UC..2821      1.000000
    x...2822  CNS..446      1.000000   CNS..469     -1.000000
    x...2822  UC..2822      1.000000
    x...2823  CNS..211     -1.000000   CNS..476      1.000000
    x...2823  UC..2823      1.000000
    x...2824  CNS..211      1.000000   CNS..476     -1.000000
    x...2824  UC..2824      1.000000
    x...2825  CNS..090     -1.000000   CNS..464      1.000000
    x...2825  UC..2825      1.000000
    x...2826  CNS..090      1.000000   CNS..464     -1.000000
    x...2826  UC..2826      1.000000
    x...2827  CNS..127     -1.000000   CNS..471      1.000000
    x...2827  UC..2827      1.000000
    x...2828  CNS..127      1.000000   CNS..471     -1.000000
    x...2828  UC..2828      1.000000
    x...2829  CNS..267      1.000000   CNS..475     -1.000000
    x...2829  UC..2829      1.000000
    x...2830  CNS..423      1.000000   CNS..475     -1.000000
    x...2830  UC..2830      1.000000
    x...2831  CNS..267      1.000000   CNS..423     -1.000000
    x...2831  UC..2831      1.000000
    x...2832  CNS..267     -1.000000   CNS..423      1.000000
    x...2832  UC..2832      1.000000
    x...2833  CNS..004      1.000000   CNS..475     -1.000000
    x...2833  UC..2833      1.000000
    x...2834  CNS..004     -1.000000   CNS..475      1.000000
    x...2834  UC..2834      1.000000
    x...2835  CNS..464     -1.000000   CNS..467      1.000000
    x...2835  UC..2835      1.000000
    x...2836  CNS..464      1.000000   CNS..467     -1.000000
    x...2836  UC..2836      1.000000
    x...2837  CNS..115      1.000000   CNS..476     -1.000000
    x...2837  UC..2837      1.000000
    x...2838  CNS..473      1.000000   CNS..476     -1.000000
    x...2838  UC..2838      1.000000
    x...2839  CNS..157     -1.000000   CNS..464      1.000000
    x...2839  UC..2839      1.000000
    x...2840  CNS..157      1.000000   CNS..464     -1.000000
    x...2840  UC..2840      1.000000
    x...2841  CNS..115     -1.000000   CNS..473      1.000000
    x...2841  UC..2841      1.000000
    x...2842  CNS..115      1.000000   CNS..473     -1.000000
    x...2842  UC..2842      1.000000
    x...2843  CNS..003      1.000000   CNS..476     -1.000000
    x...2843  UC..2843      1.000000
    x...2844  CNS..003     -1.000000   CNS..476      1.000000
    x...2844  UC..2844      1.000000
    x...2845  CNS..049      1.000000   CNS..477     -1.000000
    x...2845  UC..2845      1.000000
    x...2846  CNS..470      1.000000   CNS..477     -1.000000
    x...2846  UC..2846      1.000000
    x...2847  CNS..307      1.000000   CNS..478     -1.000000
    x...2847  UC..2847      1.000000
    x...2848  CNS..020      1.000000   CNS..478     -1.000000
    x...2848  UC..2848      1.000000
    x...2849  CNS..229      1.000000   CNS..479     -1.000000
    x...2849  UC..2849      1.000000
    x...2850  CNS..196      1.000000   CNS..479     -1.000000
    x...2850  UC..2850      1.000000
    x...2851  CNS..358      1.000000   CNS..480     -1.000000
    x...2851  UC..2851      1.000000
    x...2852  CNS..035      1.000000   CNS..480     -1.000000
    x...2852  UC..2852      1.000000
    x...2853  CNS..029     -1.000000   CNS..478      1.000000
    x...2853  UC..2853      1.000000
    x...2854  CNS..029      1.000000   CNS..478     -1.000000
    x...2854  UC..2854      1.000000
    x...2855  CNS..039      1.000000   CNS..481     -1.000000
    x...2855  UC..2855      1.000000
    x...2856  CNS..175      1.000000   CNS..481     -1.000000
    x...2856  UC..2856      1.000000
    x...2857  CNS..035      1.000000   CNS..358     -1.000000
    x...2857  UC..2857      1.000000
    x...2858  CNS..035     -1.000000   CNS..358      1.000000
    x...2858  UC..2858      1.000000
    x...2859  CNS..011      1.000000   CNS..480     -1.000000
    x...2859  UC..2859      1.000000
    x...2860  CNS..011     -1.000000   CNS..480      1.000000
    x...2860  UC..2860      1.000000
    x...2861  CNS..117     -1.000000   CNS..481      1.000000
    x...2861  UC..2861      1.000000
    x...2862  CNS..117      1.000000   CNS..481     -1.000000
    x...2862  UC..2862      1.000000
    x...2863  CNS..099      1.000000   CNS..482     -1.000000
    x...2863  UC..2863      1.000000
    x...2864  CNS..196      1.000000   CNS..482     -1.000000
    x...2864  UC..2864      1.000000
    x...2865  CNS..020      1.000000   CNS..307     -1.000000
    x...2865  UC..2865      1.000000
    x...2866  CNS..020     -1.000000   CNS..307      1.000000
    x...2866  UC..2866      1.000000
    x...2867  CNS..049      1.000000   CNS..470     -1.000000
    x...2867  UC..2867      1.000000
    x...2868  CNS..049     -1.000000   CNS..470      1.000000
    x...2868  UC..2868      1.000000
    x...2869  CNS..252      1.000000   CNS..483     -1.000000
    x...2869  UC..2869      1.000000
    x...2870  CNS..368      1.000000   CNS..483     -1.000000
    x...2870  UC..2870      1.000000
    x...2871  CNS..206      1.000000   CNS..482     -1.000000
    x...2871  UC..2871      1.000000
    x...2872  CNS..206     -1.000000   CNS..482      1.000000
    x...2872  UC..2872      1.000000
    x...2873  CNS..004      1.000000   CNS..484     -1.000000
    x...2873  UC..2873      1.000000
    x...2874  CNS..010      1.000000   CNS..484     -1.000000
    x...2874  UC..2874      1.000000
    x...2875  CNS..416     -1.000000   CNS..484      1.000000
    x...2875  UC..2875      1.000000
    x...2876  CNS..416      1.000000   CNS..484     -1.000000
    x...2876  UC..2876      1.000000
    x...2877  CNS..037      1.000000   CNS..484     -1.000000
    x...2877  UC..2877      1.000000
    x...2878  CNS..037     -1.000000   CNS..484      1.000000
    x...2878  UC..2878      1.000000
    x...2879  CNS..252     -1.000000   CNS..368      1.000000
    x...2879  UC..2879      1.000000
    x...2880  CNS..252      1.000000   CNS..368     -1.000000
    x...2880  UC..2880      1.000000
    x...2881  CNS..196      1.000000   CNS..229     -1.000000
    x...2881  UC..2881      1.000000
    x...2882  CNS..196     -1.000000   CNS..229      1.000000
    x...2882  UC..2882      1.000000
    x...2883  CNS..328     -1.000000   CNS..479      1.000000
    x...2883  UC..2883      1.000000
    x...2884  CNS..328      1.000000   CNS..479     -1.000000
    x...2884  UC..2884      1.000000
    x...2885  CNS..219      1.000000   CNS..477     -1.000000
    x...2885  UC..2885      1.000000
    x...2886  CNS..219     -1.000000   CNS..477      1.000000
    x...2886  UC..2886      1.000000
    x...2887  CNS..140      1.000000   CNS..483     -1.000000
    x...2887  UC..2887      1.000000
    x...2888  CNS..140     -1.000000   CNS..483      1.000000
    x...2888  UC..2888      1.000000
    x...2889  CNS..161      1.000000   CNS..482     -1.000000
    x...2889  UC..2889      1.000000
    x...2890  CNS..161     -1.000000   CNS..482      1.000000
    x...2890  UC..2890      1.000000
    x...2891  CNS..039     -1.000000   CNS..175      1.000000
    x...2891  UC..2891      1.000000
    x...2892  CNS..039      1.000000   CNS..175     -1.000000
    x...2892  UC..2892      1.000000
    x...2893  CNS..109      1.000000   CNS..485     -1.000000
    x...2893  UC..2893      1.000000
    x...2894  CNS..011      1.000000   CNS..485     -1.000000
    x...2894  UC..2894      1.000000
    x...2895  CNS..154     -1.000000   CNS..485      1.000000
    x...2895  UC..2895      1.000000
    x...2896  CNS..154      1.000000   CNS..485     -1.000000
    x...2896  UC..2896      1.000000
    x...2897  CNS..295     -1.000000   CNS..485      1.000000
    x...2897  UC..2897      1.000000
    x...2898  CNS..295      1.000000   CNS..485     -1.000000
    x...2898  UC..2898      1.000000
    x...2899  CNS..162      1.000000   CNS..486     -1.000000
    x...2899  UC..2899      1.000000
    x...2900  CNS..388      1.000000   CNS..486     -1.000000
    x...2900  UC..2900      1.000000
    x...2901  CNS..312     -1.000000   CNS..486      1.000000
    x...2901  UC..2901      1.000000
    x...2902  CNS..312      1.000000   CNS..486     -1.000000
    x...2902  UC..2902      1.000000
    x...2903  CNS..001      1.000000   CNS..487     -1.000000
    x...2903  UC..2903      1.000000
    x...2904  CNS..298      1.000000   CNS..487     -1.000000
    x...2904  UC..2904      1.000000
    x...2905  CNS..066      1.000000   CNS..488     -1.000000
    x...2905  UC..2905      1.000000
    x...2906  CNS..026      1.000000   CNS..488     -1.000000
    x...2906  UC..2906      1.000000
    x...2907  CNS..013      1.000000   CNS..489     -1.000000
    x...2907  UC..2907      1.000000
    x...2908  CNS..162      1.000000   CNS..489     -1.000000
    x...2908  UC..2908      1.000000
    x...2909  CNS..321     -1.000000   CNS..487      1.000000
    x...2909  UC..2909      1.000000
    x...2910  CNS..321      1.000000   CNS..487     -1.000000
    x...2910  UC..2910      1.000000
    x...2911  CNS..026     -1.000000   CNS..066      1.000000
    x...2911  UC..2911      1.000000
    x...2912  CNS..026      1.000000   CNS..066     -1.000000
    x...2912  UC..2912      1.000000
    x...2913  CNS..246     -1.000000   CNS..487      1.000000
    x...2913  UC..2913      1.000000
    x...2914  CNS..246      1.000000   CNS..487     -1.000000
    x...2914  UC..2914      1.000000
    x...2915  CNS..004      1.000000   CNS..388     -1.000000
    x...2915  UC..2915      1.000000
    x...2916  CNS..004     -1.000000   CNS..388      1.000000
    x...2916  UC..2916      1.000000
    x...2917  CNS..119     -1.000000   CNS..488      1.000000
    x...2917  UC..2917      1.000000
    x...2918  CNS..119      1.000000   CNS..488     -1.000000
    x...2918  UC..2918      1.000000
    x...2919  CNS..013     -1.000000   CNS..162      1.000000
    x...2919  UC..2919      1.000000
    x...2920  CNS..013      1.000000   CNS..162     -1.000000
    x...2920  UC..2920      1.000000
    x...2921  CNS..312     -1.000000   CNS..489      1.000000
    x...2921  UC..2921      1.000000
    x...2922  CNS..312      1.000000   CNS..489     -1.000000
    x...2922  UC..2922      1.000000
    x...2923  CNS..360      1.000000   CNS..490     -1.000000
    x...2923  UC..2923      1.000000
    x...2924  CNS..417      1.000000   CNS..490     -1.000000
    x...2924  UC..2924      1.000000
    x...2925  CNS..360      1.000000   CNS..417     -1.000000
    x...2925  UC..2925      1.000000
    x...2926  CNS..360     -1.000000   CNS..417      1.000000
    x...2926  UC..2926      1.000000
    x...2927  CNS..057      1.000000   CNS..491     -1.000000
    x...2927  UC..2927      1.000000
    x...2928  CNS..015      1.000000   CNS..491     -1.000000
    x...2928  UC..2928      1.000000
    x...2929  CNS..096      1.000000   CNS..492     -1.000000
    x...2929  UC..2929      1.000000
    x...2930  CNS..040      1.000000   CNS..492     -1.000000
    x...2930  UC..2930      1.000000
    x...2931  CNS..201     -1.000000   CNS..491      1.000000
    x...2931  UC..2931      1.000000
    x...2932  CNS..201      1.000000   CNS..491     -1.000000
    x...2932  UC..2932      1.000000
    x...2933  CNS..262      1.000000   CNS..491     -1.000000
    x...2933  UC..2933      1.000000
    x...2934  CNS..262     -1.000000   CNS..491      1.000000
    x...2934  UC..2934      1.000000
    x...2935  CNS..258      1.000000   CNS..493     -1.000000
    x...2935  UC..2935      1.000000
    x...2936  CNS..117      1.000000   CNS..493     -1.000000
    x...2936  UC..2936      1.000000
    x...2937  CNS..259      1.000000   CNS..493     -1.000000
    x...2937  UC..2937      1.000000
    x...2938  CNS..259     -1.000000   CNS..493      1.000000
    x...2938  UC..2938      1.000000
    x...2939  CNS..117      1.000000   CNS..258     -1.000000
    x...2939  UC..2939      1.000000
    x...2940  CNS..117     -1.000000   CNS..258      1.000000
    x...2940  UC..2940      1.000000
    x...2941  CNS..040     -1.000000   CNS..096      1.000000
    x...2941  UC..2941      1.000000
    x...2942  CNS..040      1.000000   CNS..096     -1.000000
    x...2942  UC..2942      1.000000
    x...2943  CNS..061      1.000000   CNS..494     -1.000000
    x...2943  UC..2943      1.000000
    x...2944  CNS..126      1.000000   CNS..494     -1.000000
    x...2944  UC..2944      1.000000
    x...2945  CNS..028     -1.000000   CNS..492      1.000000
    x...2945  UC..2945      1.000000
    x...2946  CNS..028      1.000000   CNS..492     -1.000000
    x...2946  UC..2946      1.000000
    x...2947  CNS..308     -1.000000   CNS..494      1.000000
    x...2947  UC..2947      1.000000
    x...2948  CNS..308      1.000000   CNS..494     -1.000000
    x...2948  UC..2948      1.000000
    x...2949  CNS..206      1.000000   CNS..495     -1.000000
    x...2949  UC..2949      1.000000
    x...2950  CNS..302      1.000000   CNS..495     -1.000000
    x...2950  UC..2950      1.000000
    x...2951  CNS..099      1.000000   CNS..495     -1.000000
    x...2951  UC..2951      1.000000
    x...2952  CNS..099     -1.000000   CNS..495      1.000000
    x...2952  UC..2952      1.000000
    x...2953  CNS..206     -1.000000   CNS..302      1.000000
    x...2953  UC..2953      1.000000
    x...2954  CNS..206      1.000000   CNS..302     -1.000000
    x...2954  UC..2954      1.000000
    x...2955  CNS..437      1.000000   CNS..494     -1.000000
    x...2955  UC..2955      1.000000
    x...2956  CNS..437     -1.000000   CNS..494      1.000000
    x...2956  UC..2956      1.000000
    x...2957  CNS..171      1.000000   CNS..490     -1.000000
    x...2957  UC..2957      1.000000
    x...2958  CNS..171     -1.000000   CNS..490      1.000000
    x...2958  UC..2958      1.000000
    x...2959  CNS..184      1.000000   CNS..496     -1.000000
    x...2959  UC..2959      1.000000
    x...2960  CNS..008      1.000000   CNS..496     -1.000000
    x...2960  UC..2960      1.000000
    x...2961  CNS..207      1.000000   CNS..496     -1.000000
    x...2961  UC..2961      1.000000
    x...2962  CNS..207     -1.000000   CNS..496      1.000000
    x...2962  UC..2962      1.000000
    x...2963  CNS..429      1.000000   CNS..497     -1.000000
    x...2963  UC..2963      1.000000
    x...2964  CNS..019      1.000000   CNS..497     -1.000000
    x...2964  UC..2964      1.000000
    x...2965  CNS..183      1.000000   CNS..498     -1.000000
    x...2965  UC..2965      1.000000
    x...2966  CNS..004      1.000000   CNS..498     -1.000000
    x...2966  UC..2966      1.000000
    x...2967  CNS..078     -1.000000   CNS..498      1.000000
    x...2967  UC..2967      1.000000
    x...2968  CNS..078      1.000000   CNS..498     -1.000000
    x...2968  UC..2968      1.000000
    x...2969  CNS..019     -1.000000   CNS..429      1.000000
    x...2969  UC..2969      1.000000
    x...2970  CNS..019      1.000000   CNS..429     -1.000000
    x...2970  UC..2970      1.000000
    x...2971  CNS..400     -1.000000   CNS..497      1.000000
    x...2971  UC..2971      1.000000
    x...2972  CNS..400      1.000000   CNS..497     -1.000000
    x...2972  UC..2972      1.000000
    x...2973  CNS..004     -1.000000   CNS..183      1.000000
    x...2973  UC..2973      1.000000
    x...2974  CNS..004      1.000000   CNS..183     -1.000000
    x...2974  UC..2974      1.000000
    x...2975  CNS..008      1.000000   CNS..184     -1.000000
    x...2975  UC..2975      1.000000
    x...2976  CNS..008     -1.000000   CNS..184      1.000000
    x...2976  UC..2976      1.000000
    x...2977  CNS..147      1.000000   CNS..499     -1.000000
    x...2977  UC..2977      1.000000
    x...2978  CNS..004      1.000000   CNS..499     -1.000000
    x...2978  UC..2978      1.000000
    x...2979  CNS..015     -1.000000   CNS..499      1.000000
    x...2979  UC..2979      1.000000
    x...2980  CNS..015      1.000000   CNS..499     -1.000000
    x...2980  UC..2980      1.000000
    x...2981  CNS..355     -1.000000   CNS..499      1.000000
    x...2981  UC..2981      1.000000
    x...2982  CNS..355      1.000000   CNS..499     -1.000000
    x...2982  UC..2982      1.000000
    x...2983  CNS..014      1.000000   CNS..500     -1.000000
    x...2983  UC..2983      1.000000
    x...2984  CNS..003      1.000000   CNS..500     -1.000000
    x...2984  UC..2984      1.000000
    x...2985  CNS..268      1.000000   CNS..500     -1.000000
    x...2985  UC..2985      1.000000
    x...2986  CNS..268     -1.000000   CNS..500      1.000000
    x...2986  UC..2986      1.000000
    x...2987  CNS..017     -1.000000   CNS..500      1.000000
    x...2987  UC..2987      1.000000
    x...2988  CNS..017      1.000000   CNS..500     -1.000000
    x...2988  UC..2988      1.000000
    y...0001  OBJ.....      1.000000   UC..0001  -1965.000000
    y...0002  OBJ.....      1.000000   UC..0002  -1965.000000
    y...0003  OBJ.....      1.000000   UC..0003  -1965.000000
    y...0004  OBJ.....      1.000000   UC..0004  -1965.000000
    y...0005  OBJ.....      1.000000   UC..0005  -1965.000000
    y...0006  OBJ.....      1.000000   UC..0006  -1965.000000
    y...0007  OBJ.....      1.000000   UC..0007  -1965.000000
    y...0008  OBJ.....      1.000000   UC..0008  -1965.000000
    y...0009  OBJ.....      1.000000   UC..0009  -1965.000000
    y...0010  OBJ.....      1.000000   UC..0010  -1965.000000
    y...0011  OBJ.....      1.000000   UC..0011  -1965.000000
    y...0012  OBJ.....      1.000000   UC..0012  -1965.000000
    y...0013  OBJ.....      1.000000   UC..0013  -1965.000000
    y...0014  OBJ.....      1.000000   UC..0014  -1965.000000
    y...0015  OBJ.....      1.000000   UC..0015  -1965.000000
    y...0016  OBJ.....      1.000000   UC..0016  -1965.000000
    y...0017  OBJ.....      1.000000   UC..0017  -1965.000000
    y...0018  OBJ.....      1.000000   UC..0018  -1965.000000
    y...0019  OBJ.....      1.000000   UC..0019  -1965.000000
    y...0020  OBJ.....      1.000000   UC..0020  -1965.000000
    y...0021  OBJ.....      1.000000   UC..0021  -1965.000000
    y...0022  OBJ.....      1.000000   UC..0022  -1965.000000
    y...0023  OBJ.....      1.000000   UC..0023  -1965.000000
    y...0024  OBJ.....      1.000000   UC..0024  -1965.000000
    y...0025  OBJ.....      1.000000   UC..0025  -1965.000000
    y...0026  OBJ.....      1.000000   UC..0026  -1965.000000
    y...0027  OBJ.....      1.000000   UC..0027  -1965.000000
    y...0028  OBJ.....      1.000000   UC..0028  -1965.000000
    y...0029  OBJ.....      1.000000   UC..0029  -1965.000000
    y...0030  OBJ.....      1.000000   UC..0030  -1965.000000
    y...0031  OBJ.....      1.000000   UC..0031  -1965.000000
    y...0032  OBJ.....      1.000000   UC..0032  -1965.000000
    y...0033  OBJ.....      1.000000   UC..0033  -1965.000000
    y...0034  OBJ.....      1.000000   UC..0034  -1965.000000
    y...0035  OBJ.....      1.000000   UC..0035  -1965.000000
    y...0036  OBJ.....      1.000000   UC..0036  -1965.000000
    y...0037  OBJ.....      1.000000   UC..0037  -1965.000000
    y...0038  OBJ.....      1.000000   UC..0038  -1965.000000
    y...0039  OBJ.....      1.000000   UC..0039  -1965.000000
    y...0040  OBJ.....      1.000000   UC..0040  -1965.000000
    y...0041  OBJ.....      1.000000   UC..0041  -1965.000000
    y...0042  OBJ.....      1.000000   UC..0042  -1965.000000
    y...0043  OBJ.....      1.000000   UC..0043  -1965.000000
    y...0044  OBJ.....      1.000000   UC..0044  -1965.000000
    y...0045  OBJ.....      1.000000   UC..0045  -1965.000000
    y...0046  OBJ.....      1.000000   UC..0046  -1965.000000
    y...0047  OBJ.....      1.000000   UC..0047  -1965.000000
    y...0048  OBJ.....      1.000000   UC..0048  -1965.000000
    y...0049  OBJ.....      1.000000   UC..0049  -1965.000000
    y...0050  OBJ.....      1.000000   UC..0050  -1965.000000
    y...0051  OBJ.....      1.000000   UC..0051  -1965.000000
    y...0052  OBJ.....      1.000000   UC..0052  -1965.000000
    y...0053  OBJ.....      1.000000   UC..0053  -1965.000000
    y...0054  OBJ.....      1.000000   UC..0054  -1965.000000
    y...0055  OBJ.....      1.000000   UC..0055  -1965.000000
    y...0056  OBJ.....      1.000000   UC..0056  -1965.000000
    y...0057  OBJ.....      1.000000   UC..0057  -1965.000000
    y...0058  OBJ.....      1.000000   UC..0058  -1965.000000
    y...0059  OBJ.....      1.000000   UC..0059  -1965.000000
    y...0060  OBJ.....      1.000000   UC..0060  -1965.000000
    y...0061  OBJ.....      1.000000   UC..0061  -1965.000000
    y...0062  OBJ.....      1.000000   UC..0062  -1965.000000
    y...0063  OBJ.....      1.000000   UC..0063  -1965.000000
    y...0064  OBJ.....      1.000000   UC..0064  -1965.000000
    y...0065  OBJ.....      1.000000   UC..0065  -1965.000000
    y...0066  OBJ.....      1.000000   UC..0066  -1965.000000
    y...0067  OBJ.....      1.000000   UC..0067  -1965.000000
    y...0068  OBJ.....      1.000000   UC..0068  -1965.000000
    y...0069  OBJ.....      1.000000   UC..0069  -1965.000000
    y...0070  OBJ.....      1.000000   UC..0070  -1965.000000
    y...0071  OBJ.....      1.000000   UC..0071  -1965.000000
    y...0072  OBJ.....      1.000000   UC..0072  -1965.000000
    y...0073  OBJ.....      1.000000   UC..0073  -1965.000000
    y...0074  OBJ.....      1.000000   UC..0074  -1965.000000
    y...0075  OBJ.....      1.000000   UC..0075  -1965.000000
    y...0076  OBJ.....      1.000000   UC..0076  -1965.000000
    y...0077  OBJ.....      1.000000   UC..0077  -1965.000000
    y...0078  OBJ.....      1.000000   UC..0078  -1965.000000
    y...0079  OBJ.....      1.000000   UC..0079  -1965.000000
    y...0080  OBJ.....      1.000000   UC..0080  -1965.000000
    y...0081  OBJ.....      1.000000   UC..0081  -1965.000000
    y...0082  OBJ.....      1.000000   UC..0082  -1965.000000
    y...0083  OBJ.....      1.000000   UC..0083  -1965.000000
    y...0084  OBJ.....      1.000000   UC..0084  -1965.000000
    y...0085  OBJ.....      1.000000   UC..0085  -1965.000000
    y...0086  OBJ.....      1.000000   UC..0086  -1965.000000
    y...0087  OBJ.....      1.000000   UC..0087  -1965.000000
    y...0088  OBJ.....      1.000000   UC..0088  -1965.000000
    y...0089  OBJ.....      1.000000   UC..0089  -1965.000000
    y...0090  OBJ.....      1.000000   UC..0090  -1965.000000
    y...0091  OBJ.....      1.000000   UC..0091  -1965.000000
    y...0092  OBJ.....      1.000000   UC..0092  -1965.000000
    y...0093  OBJ.....      1.000000   UC..0093  -1965.000000
    y...0094  OBJ.....      1.000000   UC..0094  -1965.000000
    y...0095  OBJ.....      1.000000   UC..0095  -1965.000000
    y...0096  OBJ.....      1.000000   UC..0096  -1965.000000
    y...0097  OBJ.....      1.000000   UC..0097  -1965.000000
    y...0098  OBJ.....      1.000000   UC..0098  -1965.000000
    y...0099  OBJ.....      1.000000   UC..0099  -1965.000000
    y...0100  OBJ.....      1.000000   UC..0100  -1965.000000
    y...0101  OBJ.....      1.000000   UC..0101  -1965.000000
    y...0102  OBJ.....      1.000000   UC..0102  -1965.000000
    y...0103  OBJ.....      1.000000   UC..0103  -1965.000000
    y...0104  OBJ.....      1.000000   UC..0104  -1965.000000
    y...0105  OBJ.....      1.000000   UC..0105  -1965.000000
    y...0106  OBJ.....      1.000000   UC..0106  -1965.000000
    y...0107  OBJ.....      1.000000   UC..0107  -1965.000000
    y...0108  OBJ.....      1.000000   UC..0108  -1965.000000
    y...0109  OBJ.....      1.000000   UC..0109  -1965.000000
    y...0110  OBJ.....      1.000000   UC..0110  -1965.000000
    y...0111  OBJ.....      1.000000   UC..0111  -1965.000000
    y...0112  OBJ.....      1.000000   UC..0112  -1965.000000
    y...0113  OBJ.....      1.000000   UC..0113  -1965.000000
    y...0114  OBJ.....      1.000000   UC..0114  -1965.000000
    y...0115  OBJ.....      1.000000   UC..0115  -1965.000000
    y...0116  OBJ.....      1.000000   UC..0116  -1965.000000
    y...0117  OBJ.....      1.000000   UC..0117  -1965.000000
    y...0118  OBJ.....      1.000000   UC..0118  -1965.000000
    y...0119  OBJ.....      1.000000   UC..0119  -1965.000000
    y...0120  OBJ.....      1.000000   UC..0120  -1965.000000
    y...0121  OBJ.....      1.000000   UC..0121  -1965.000000
    y...0122  OBJ.....      1.000000   UC..0122  -1965.000000
    y...0123  OBJ.....      1.000000   UC..0123  -1965.000000
    y...0124  OBJ.....      1.000000   UC..0124  -1965.000000
    y...0125  OBJ.....      1.000000   UC..0125  -1965.000000
    y...0126  OBJ.....      1.000000   UC..0126  -1965.000000
    y...0127  OBJ.....      1.000000   UC..0127  -1965.000000
    y...0128  OBJ.....      1.000000   UC..0128  -1965.000000
    y...0129  OBJ.....      1.000000   UC..0129  -1965.000000
    y...0130  OBJ.....      1.000000   UC..0130  -1965.000000
    y...0131  OBJ.....      1.000000   UC..0131  -1965.000000
    y...0132  OBJ.....      1.000000   UC..0132  -1965.000000
    y...0133  OBJ.....      1.000000   UC..0133  -1965.000000
    y...0134  OBJ.....      1.000000   UC..0134  -1965.000000
    y...0135  OBJ.....      1.000000   UC..0135  -1965.000000
    y...0136  OBJ.....      1.000000   UC..0136  -1965.000000
    y...0137  OBJ.....      1.000000   UC..0137  -1965.000000
    y...0138  OBJ.....      1.000000   UC..0138  -1965.000000
    y...0139  OBJ.....      1.000000   UC..0139  -1965.000000
    y...0140  OBJ.....      1.000000   UC..0140  -1965.000000
    y...0141  OBJ.....      1.000000   UC..0141  -1965.000000
    y...0142  OBJ.....      1.000000   UC..0142  -1965.000000
    y...0143  OBJ.....      1.000000   UC..0143  -1965.000000
    y...0144  OBJ.....      1.000000   UC..0144  -1965.000000
    y...0145  OBJ.....      1.000000   UC..0145  -1965.000000
    y...0146  OBJ.....      1.000000   UC..0146  -1965.000000
    y...0147  OBJ.....      1.000000   UC..0147  -1965.000000
    y...0148  OBJ.....      1.000000   UC..0148  -1965.000000
    y...0149  OBJ.....      1.000000   UC..0149  -1965.000000
    y...0150  OBJ.....      1.000000   UC..0150  -1965.000000
    y...0151  OBJ.....      1.000000   UC..0151  -1965.000000
    y...0152  OBJ.....      1.000000   UC..0152  -1965.000000
    y...0153  OBJ.....      1.000000   UC..0153  -1965.000000
    y...0154  OBJ.....      1.000000   UC..0154  -1965.000000
    y...0155  OBJ.....      1.000000   UC..0155  -1965.000000
    y...0156  OBJ.....      1.000000   UC..0156  -1965.000000
    y...0157  OBJ.....      1.000000   UC..0157  -1965.000000
    y...0158  OBJ.....      1.000000   UC..0158  -1965.000000
    y...0159  OBJ.....      1.000000   UC..0159  -1965.000000
    y...0160  OBJ.....      1.000000   UC..0160  -1965.000000
    y...0161  OBJ.....      1.000000   UC..0161  -1965.000000
    y...0162  OBJ.....      1.000000   UC..0162  -1965.000000
    y...0163  OBJ.....      1.000000   UC..0163  -1965.000000
    y...0164  OBJ.....      1.000000   UC..0164  -1965.000000
    y...0165  OBJ.....      1.000000   UC..0165  -1965.000000
    y...0166  OBJ.....      1.000000   UC..0166  -1965.000000
    y...0167  OBJ.....      1.000000   UC..0167  -1965.000000
    y...0168  OBJ.....      1.000000   UC..0168  -1965.000000
    y...0169  OBJ.....      1.000000   UC..0169  -1965.000000
    y...0170  OBJ.....      1.000000   UC..0170  -1965.000000
    y...0171  OBJ.....      1.000000   UC..0171  -1965.000000
    y...0172  OBJ.....      1.000000   UC..0172  -1965.000000
    y...0173  OBJ.....      1.000000   UC..0173  -1965.000000
    y...0174  OBJ.....      1.000000   UC..0174  -1965.000000
    y...0175  OBJ.....      1.000000   UC..0175  -1965.000000
    y...0176  OBJ.....      1.000000   UC..0176  -1965.000000
    y...0177  OBJ.....      1.000000   UC..0177  -1965.000000
    y...0178  OBJ.....      1.000000   UC..0178  -1965.000000
    y...0179  OBJ.....      1.000000   UC..0179  -1965.000000
    y...0180  OBJ.....      1.000000   UC..0180  -1965.000000
    y...0181  OBJ.....      1.000000   UC..0181  -1965.000000
    y...0182  OBJ.....      1.000000   UC..0182  -1965.000000
    y...0183  OBJ.....      1.000000   UC..0183  -1965.000000
    y...0184  OBJ.....      1.000000   UC..0184  -1965.000000
    y...0185  OBJ.....      1.000000   UC..0185  -1965.000000
    y...0186  OBJ.....      1.000000   UC..0186  -1965.000000
    y...0187  OBJ.....      1.000000   UC..0187  -1965.000000
    y...0188  OBJ.....      1.000000   UC..0188  -1965.000000
    y...0189  OBJ.....      1.000000   UC..0189  -1965.000000
    y...0190  OBJ.....      1.000000   UC..0190  -1965.000000
    y...0191  OBJ.....      1.000000   UC..0191  -1965.000000
    y...0192  OBJ.....      1.000000   UC..0192  -1965.000000
    y...0193  OBJ.....      1.000000   UC..0193  -1965.000000
    y...0194  OBJ.....      1.000000   UC..0194  -1965.000000
    y...0195  OBJ.....      1.000000   UC..0195  -1965.000000
    y...0196  OBJ.....      1.000000   UC..0196  -1965.000000
    y...0197  OBJ.....      1.000000   UC..0197  -1965.000000
    y...0198  OBJ.....      1.000000   UC..0198  -1965.000000
    y...0199  OBJ.....      1.000000   UC..0199  -1965.000000
    y...0200  OBJ.....      1.000000   UC..0200  -1965.000000
    y...0201  OBJ.....      1.000000   UC..0201  -1965.000000
    y...0202  OBJ.....      1.000000   UC..0202  -1965.000000
    y...0203  OBJ.....      1.000000   UC..0203  -1965.000000
    y...0204  OBJ.....      1.000000   UC..0204  -1965.000000
    y...0205  OBJ.....      1.000000   UC..0205  -1965.000000
    y...0206  OBJ.....      1.000000   UC..0206  -1965.000000
    y...0207  OBJ.....      1.000000   UC..0207  -1965.000000
    y...0208  OBJ.....      1.000000   UC..0208  -1965.000000
    y...0209  OBJ.....      1.000000   UC..0209  -1965.000000
    y...0210  OBJ.....      1.000000   UC..0210  -1965.000000
    y...0211  OBJ.....      1.000000   UC..0211  -1965.000000
    y...0212  OBJ.....      1.000000   UC..0212  -1965.000000
    y...0213  OBJ.....      1.000000   UC..0213  -1965.000000
    y...0214  OBJ.....      1.000000   UC..0214  -1965.000000
    y...0215  OBJ.....      1.000000   UC..0215  -1965.000000
    y...0216  OBJ.....      1.000000   UC..0216  -1965.000000
    y...0217  OBJ.....      1.000000   UC..0217  -1965.000000
    y...0218  OBJ.....      1.000000   UC..0218  -1965.000000
    y...0219  OBJ.....      1.000000   UC..0219  -1965.000000
    y...0220  OBJ.....      1.000000   UC..0220  -1965.000000
    y...0221  OBJ.....      1.000000   UC..0221  -1965.000000
    y...0222  OBJ.....      1.000000   UC..0222  -1965.000000
    y...0223  OBJ.....      1.000000   UC..0223  -1965.000000
    y...0224  OBJ.....      1.000000   UC..0224  -1965.000000
    y...0225  OBJ.....      1.000000   UC..0225  -1965.000000
    y...0226  OBJ.....      1.000000   UC..0226  -1965.000000
    y...0227  OBJ.....      1.000000   UC..0227  -1965.000000
    y...0228  OBJ.....      1.000000   UC..0228  -1965.000000
    y...0229  OBJ.....      1.000000   UC..0229  -1965.000000
    y...0230  OBJ.....      1.000000   UC..0230  -1965.000000
    y...0231  OBJ.....      1.000000   UC..0231  -1965.000000
    y...0232  OBJ.....      1.000000   UC..0232  -1965.000000
    y...0233  OBJ.....      1.000000   UC..0233  -1965.000000
    y...0234  OBJ.....      1.000000   UC..0234  -1965.000000
    y...0235  OBJ.....      1.000000   UC..0235  -1965.000000
    y...0236  OBJ.....      1.000000   UC..0236  -1965.000000
    y...0237  OBJ.....      1.000000   UC..0237  -1965.000000
    y...0238  OBJ.....      1.000000   UC..0238  -1965.000000
    y...0239  OBJ.....      1.000000   UC..0239  -1965.000000
    y...0240  OBJ.....      1.000000   UC..0240  -1965.000000
    y...0241  OBJ.....      1.000000   UC..0241  -1965.000000
    y...0242  OBJ.....      1.000000   UC..0242  -1965.000000
    y...0243  OBJ.....      1.000000   UC..0243  -1965.000000
    y...0244  OBJ.....      1.000000   UC..0244  -1965.000000
    y...0245  OBJ.....      1.000000   UC..0245  -1965.000000
    y...0246  OBJ.....      1.000000   UC..0246  -1965.000000
    y...0247  OBJ.....      1.000000   UC..0247  -1965.000000
    y...0248  OBJ.....      1.000000   UC..0248  -1965.000000
    y...0249  OBJ.....      1.000000   UC..0249  -1965.000000
    y...0250  OBJ.....      1.000000   UC..0250  -1965.000000
    y...0251  OBJ.....      1.000000   UC..0251  -1965.000000
    y...0252  OBJ.....      1.000000   UC..0252  -1965.000000
    y...0253  OBJ.....      1.000000   UC..0253  -1965.000000
    y...0254  OBJ.....      1.000000   UC..0254  -1965.000000
    y...0255  OBJ.....      1.000000   UC..0255  -1965.000000
    y...0256  OBJ.....      1.000000   UC..0256  -1965.000000
    y...0257  OBJ.....      1.000000   UC..0257  -1965.000000
    y...0258  OBJ.....      1.000000   UC..0258  -1965.000000
    y...0259  OBJ.....      1.000000   UC..0259  -1965.000000
    y...0260  OBJ.....      1.000000   UC..0260  -1965.000000
    y...0261  OBJ.....      1.000000   UC..0261  -1965.000000
    y...0262  OBJ.....      1.000000   UC..0262  -1965.000000
    y...0263  OBJ.....      1.000000   UC..0263  -1965.000000
    y...0264  OBJ.....      1.000000   UC..0264  -1965.000000
    y...0265  OBJ.....      1.000000   UC..0265  -1965.000000
    y...0266  OBJ.....      1.000000   UC..0266  -1965.000000
    y...0267  OBJ.....      1.000000   UC..0267  -1965.000000
    y...0268  OBJ.....      1.000000   UC..0268  -1965.000000
    y...0269  OBJ.....      1.000000   UC..0269  -1965.000000
    y...0270  OBJ.....      1.000000   UC..0270  -1965.000000
    y...0271  OBJ.....      1.000000   UC..0271  -1965.000000
    y...0272  OBJ.....      1.000000   UC..0272  -1965.000000
    y...0273  OBJ.....      1.000000   UC..0273  -1965.000000
    y...0274  OBJ.....      1.000000   UC..0274  -1965.000000
    y...0275  OBJ.....      1.000000   UC..0275  -1965.000000
    y...0276  OBJ.....      1.000000   UC..0276  -1965.000000
    y...0277  OBJ.....      1.000000   UC..0277  -1965.000000
    y...0278  OBJ.....      1.000000   UC..0278  -1965.000000
    y...0279  OBJ.....      1.000000   UC..0279  -1965.000000
    y...0280  OBJ.....      1.000000   UC..0280  -1965.000000
    y...0281  OBJ.....      1.000000   UC..0281  -1965.000000
    y...0282  OBJ.....      1.000000   UC..0282  -1965.000000
    y...0283  OBJ.....      1.000000   UC..0283  -1965.000000
    y...0284  OBJ.....      1.000000   UC..0284  -1965.000000
    y...0285  OBJ.....      1.000000   UC..0285  -1965.000000
    y...0286  OBJ.....      1.000000   UC..0286  -1965.000000
    y...0287  OBJ.....      1.000000   UC..0287  -1965.000000
    y...0288  OBJ.....      1.000000   UC..0288  -1965.000000
    y...0289  OBJ.....      1.000000   UC..0289  -1965.000000
    y...0290  OBJ.....      1.000000   UC..0290  -1965.000000
    y...0291  OBJ.....      1.000000   UC..0291  -1965.000000
    y...0292  OBJ.....      1.000000   UC..0292  -1965.000000
    y...0293  OBJ.....      1.000000   UC..0293  -1965.000000
    y...0294  OBJ.....      1.000000   UC..0294  -1965.000000
    y...0295  OBJ.....      1.000000   UC..0295  -1965.000000
    y...0296  OBJ.....      1.000000   UC..0296  -1965.000000
    y...0297  OBJ.....      1.000000   UC..0297  -1965.000000
    y...0298  OBJ.....      1.000000   UC..0298  -1965.000000
    y...0299  OBJ.....      1.000000   UC..0299  -1965.000000
    y...0300  OBJ.....      1.000000   UC..0300  -1965.000000
    y...0301  OBJ.....      1.000000   UC..0301  -1965.000000
    y...0302  OBJ.....      1.000000   UC..0302  -1965.000000
    y...0303  OBJ.....      1.000000   UC..0303  -1965.000000
    y...0304  OBJ.....      1.000000   UC..0304  -1965.000000
    y...0305  OBJ.....      1.000000   UC..0305  -1965.000000
    y...0306  OBJ.....      1.000000   UC..0306  -1965.000000
    y...0307  OBJ.....      1.000000   UC..0307  -1965.000000
    y...0308  OBJ.....      1.000000   UC..0308  -1965.000000
    y...0309  OBJ.....      1.000000   UC..0309  -1965.000000
    y...0310  OBJ.....      1.000000   UC..0310  -1965.000000
    y...0311  OBJ.....      1.000000   UC..0311  -1965.000000
    y...0312  OBJ.....      1.000000   UC..0312  -1965.000000
    y...0313  OBJ.....      1.000000   UC..0313  -1965.000000
    y...0314  OBJ.....      1.000000   UC..0314  -1965.000000
    y...0315  OBJ.....      1.000000   UC..0315  -1965.000000
    y...0316  OBJ.....      1.000000   UC..0316  -1965.000000
    y...0317  OBJ.....      1.000000   UC..0317  -1965.000000
    y...0318  OBJ.....      1.000000   UC..0318  -1965.000000
    y...0319  OBJ.....      1.000000   UC..0319  -1965.000000
    y...0320  OBJ.....      1.000000   UC..0320  -1965.000000
    y...0321  OBJ.....      1.000000   UC..0321  -1965.000000
    y...0322  OBJ.....      1.000000   UC..0322  -1965.000000
    y...0323  OBJ.....      1.000000   UC..0323  -1965.000000
    y...0324  OBJ.....      1.000000   UC..0324  -1965.000000
    y...0325  OBJ.....      1.000000   UC..0325  -1965.000000
    y...0326  OBJ.....      1.000000   UC..0326  -1965.000000
    y...0327  OBJ.....      1.000000   UC..0327  -1965.000000
    y...0328  OBJ.....      1.000000   UC..0328  -1965.000000
    y...0329  OBJ.....      1.000000   UC..0329  -1965.000000
    y...0330  OBJ.....      1.000000   UC..0330  -1965.000000
    y...0331  OBJ.....      1.000000   UC..0331  -1965.000000
    y...0332  OBJ.....      1.000000   UC..0332  -1965.000000
    y...0333  OBJ.....      1.000000   UC..0333  -1965.000000
    y...0334  OBJ.....      1.000000   UC..0334  -1965.000000
    y...0335  OBJ.....      1.000000   UC..0335  -1965.000000
    y...0336  OBJ.....      1.000000   UC..0336  -1965.000000
    y...0337  OBJ.....      1.000000   UC..0337  -1965.000000
    y...0338  OBJ.....      1.000000   UC..0338  -1965.000000
    y...0339  OBJ.....      1.000000   UC..0339  -1965.000000
    y...0340  OBJ.....      1.000000   UC..0340  -1965.000000
    y...0341  OBJ.....      1.000000   UC..0341  -1965.000000
    y...0342  OBJ.....      1.000000   UC..0342  -1965.000000
    y...0343  OBJ.....      1.000000   UC..0343  -1965.000000
    y...0344  OBJ.....      1.000000   UC..0344  -1965.000000
    y...0345  OBJ.....      1.000000   UC..0345  -1965.000000
    y...0346  OBJ.....      1.000000   UC..0346  -1965.000000
    y...0347  OBJ.....      1.000000   UC..0347  -1965.000000
    y...0348  OBJ.....      1.000000   UC..0348  -1965.000000
    y...0349  OBJ.....      1.000000   UC..0349  -1965.000000
    y...0350  OBJ.....      1.000000   UC..0350  -1965.000000
    y...0351  OBJ.....      1.000000   UC..0351  -1965.000000
    y...0352  OBJ.....      1.000000   UC..0352  -1965.000000
    y...0353  OBJ.....      1.000000   UC..0353  -1965.000000
    y...0354  OBJ.....      1.000000   UC..0354  -1965.000000
    y...0355  OBJ.....      1.000000   UC..0355  -1965.000000
    y...0356  OBJ.....      1.000000   UC..0356  -1965.000000
    y...0357  OBJ.....      1.000000   UC..0357  -1965.000000
    y...0358  OBJ.....      1.000000   UC..0358  -1965.000000
    y...0359  OBJ.....      1.000000   UC..0359  -1965.000000
    y...0360  OBJ.....      1.000000   UC..0360  -1965.000000
    y...0361  OBJ.....      1.000000   UC..0361  -1965.000000
    y...0362  OBJ.....      1.000000   UC..0362  -1965.000000
    y...0363  OBJ.....      1.000000   UC..0363  -1965.000000
    y...0364  OBJ.....      1.000000   UC..0364  -1965.000000
    y...0365  OBJ.....      1.000000   UC..0365  -1965.000000
    y...0366  OBJ.....      1.000000   UC..0366  -1965.000000
    y...0367  OBJ.....      1.000000   UC..0367  -1965.000000
    y...0368  OBJ.....      1.000000   UC..0368  -1965.000000
    y...0369  OBJ.....      1.000000   UC..0369  -1965.000000
    y...0370  OBJ.....      1.000000   UC..0370  -1965.000000
    y...0371  OBJ.....      1.000000   UC..0371  -1965.000000
    y...0372  OBJ.....      1.000000   UC..0372  -1965.000000
    y...0373  OBJ.....      1.000000   UC..0373  -1965.000000
    y...0374  OBJ.....      1.000000   UC..0374  -1965.000000
    y...0375  OBJ.....      1.000000   UC..0375  -1965.000000
    y...0376  OBJ.....      1.000000   UC..0376  -1965.000000
    y...0377  OBJ.....      1.000000   UC..0377  -1965.000000
    y...0378  OBJ.....      1.000000   UC..0378  -1965.000000
    y...0379  OBJ.....      1.000000   UC..0379  -1965.000000
    y...0380  OBJ.....      1.000000   UC..0380  -1965.000000
    y...0381  OBJ.....      1.000000   UC..0381  -1965.000000
    y...0382  OBJ.....      1.000000   UC..0382  -1965.000000
    y...0383  OBJ.....      1.000000   UC..0383  -1965.000000
    y...0384  OBJ.....      1.000000   UC..0384  -1965.000000
    y...0385  OBJ.....      1.000000   UC..0385  -1965.000000
    y...0386  OBJ.....      1.000000   UC..0386  -1965.000000
    y...0387  OBJ.....      1.000000   UC..0387  -1965.000000
    y...0388  OBJ.....      1.000000   UC..0388  -1965.000000
    y...0389  OBJ.....      1.000000   UC..0389  -1965.000000
    y...0390  OBJ.....      1.000000   UC..0390  -1965.000000
    y...0391  OBJ.....      1.000000   UC..0391  -1965.000000
    y...0392  OBJ.....      1.000000   UC..0392  -1965.000000
    y...0393  OBJ.....      1.000000   UC..0393  -1965.000000
    y...0394  OBJ.....      1.000000   UC..0394  -1965.000000
    y...0395  OBJ.....      1.000000   UC..0395  -1965.000000
    y...0396  OBJ.....      1.000000   UC..0396  -1965.000000
    y...0397  OBJ.....      1.000000   UC..0397  -1965.000000
    y...0398  OBJ.....      1.000000   UC..0398  -1965.000000
    y...0399  OBJ.....      1.000000   UC..0399  -1965.000000
    y...0400  OBJ.....      1.000000   UC..0400  -1965.000000
    y...0401  OBJ.....      1.000000   UC..0401  -1965.000000
    y...0402  OBJ.....      1.000000   UC..0402  -1965.000000
    y...0403  OBJ.....      1.000000   UC..0403  -1965.000000
    y...0404  OBJ.....      1.000000   UC..0404  -1965.000000
    y...0405  OBJ.....      1.000000   UC..0405  -1965.000000
    y...0406  OBJ.....      1.000000   UC..0406  -1965.000000
    y...0407  OBJ.....      1.000000   UC..0407  -1965.000000
    y...0408  OBJ.....      1.000000   UC..0408  -1965.000000
    y...0409  OBJ.....      1.000000   UC..0409  -1965.000000
    y...0410  OBJ.....      1.000000   UC..0410  -1965.000000
    y...0411  OBJ.....      1.000000   UC..0411  -1965.000000
    y...0412  OBJ.....      1.000000   UC..0412  -1965.000000
    y...0413  OBJ.....      1.000000   UC..0413  -1965.000000
    y...0414  OBJ.....      1.000000   UC..0414  -1965.000000
    y...0415  OBJ.....      1.000000   UC..0415  -1965.000000
    y...0416  OBJ.....      1.000000   UC..0416  -1965.000000
    y...0417  OBJ.....      1.000000   UC..0417  -1965.000000
    y...0418  OBJ.....      1.000000   UC..0418  -1965.000000
    y...0419  OBJ.....      1.000000   UC..0419  -1965.000000
    y...0420  OBJ.....      1.000000   UC..0420  -1965.000000
    y...0421  OBJ.....      1.000000   UC..0421  -1965.000000
    y...0422  OBJ.....      1.000000   UC..0422  -1965.000000
    y...0423  OBJ.....      1.000000   UC..0423  -1965.000000
    y...0424  OBJ.....      1.000000   UC..0424  -1965.000000
    y...0425  OBJ.....      1.000000   UC..0425  -1965.000000
    y...0426  OBJ.....      1.000000   UC..0426  -1965.000000
    y...0427  OBJ.....      1.000000   UC..0427  -1965.000000
    y...0428  OBJ.....      1.000000   UC..0428  -1965.000000
    y...0429  OBJ.....      1.000000   UC..0429  -1965.000000
    y...0430  OBJ.....      1.000000   UC..0430  -1965.000000
    y...0431  OBJ.....      1.000000   UC..0431  -1965.000000
    y...0432  OBJ.....      1.000000   UC..0432  -1965.000000
    y...0433  OBJ.....      1.000000   UC..0433  -1965.000000
    y...0434  OBJ.....      1.000000   UC..0434  -1965.000000
    y...0435  OBJ.....      1.000000   UC..0435  -1965.000000
    y...0436  OBJ.....      1.000000   UC..0436  -1965.000000
    y...0437  OBJ.....      1.000000   UC..0437  -1965.000000
    y...0438  OBJ.....      1.000000   UC..0438  -1965.000000
    y...0439  OBJ.....      1.000000   UC..0439  -1965.000000
    y...0440  OBJ.....      1.000000   UC..0440  -1965.000000
    y...0441  OBJ.....      1.000000   UC..0441  -1965.000000
    y...0442  OBJ.....      1.000000   UC..0442  -1965.000000
    y...0443  OBJ.....      1.000000   UC..0443  -1965.000000
    y...0444  OBJ.....      1.000000   UC..0444  -1965.000000
    y...0445  OBJ.....      1.000000   UC..0445  -1965.000000
    y...0446  OBJ.....      1.000000   UC..0446  -1965.000000
    y...0447  OBJ.....      1.000000   UC..0447  -1965.000000
    y...0448  OBJ.....      1.000000   UC..0448  -1965.000000
    y...0449  OBJ.....      1.000000   UC..0449  -1965.000000
    y...0450  OBJ.....      1.000000   UC..0450  -1965.000000
    y...0451  OBJ.....      1.000000   UC..0451  -1965.000000
    y...0452  OBJ.....      1.000000   UC..0452  -1965.000000
    y...0453  OBJ.....      1.000000   UC..0453  -1965.000000
    y...0454  OBJ.....      1.000000   UC..0454  -1965.000000
    y...0455  OBJ.....      1.000000   UC..0455  -1965.000000
    y...0456  OBJ.....      1.000000   UC..0456  -1965.000000
    y...0457  OBJ.....      1.000000   UC..0457  -1965.000000
    y...0458  OBJ.....      1.000000   UC..0458  -1965.000000
    y...0459  OBJ.....      1.000000   UC..0459  -1965.000000
    y...0460  OBJ.....      1.000000   UC..0460  -1965.000000
    y...0461  OBJ.....      1.000000   UC..0461  -1965.000000
    y...0462  OBJ.....      1.000000   UC..0462  -1965.000000
    y...0463  OBJ.....      1.000000   UC..0463  -1965.000000
    y...0464  OBJ.....      1.000000   UC..0464  -1965.000000
    y...0465  OBJ.....      1.000000   UC..0465  -1965.000000
    y...0466  OBJ.....      1.000000   UC..0466  -1965.000000
    y...0467  OBJ.....      1.000000   UC..0467  -1965.000000
    y...0468  OBJ.....      1.000000   UC..0468  -1965.000000
    y...0469  OBJ.....      1.000000   UC..0469  -1965.000000
    y...0470  OBJ.....      1.000000   UC..0470  -1965.000000
    y...0471  OBJ.....      1.000000   UC..0471  -1965.000000
    y...0472  OBJ.....      1.000000   UC..0472  -1965.000000
    y...0473  OBJ.....      1.000000   UC..0473  -1965.000000
    y...0474  OBJ.....      1.000000   UC..0474  -1965.000000
    y...0475  OBJ.....      1.000000   UC..0475  -1965.000000
    y...0476  OBJ.....      1.000000   UC..0476  -1965.000000
    y...0477  OBJ.....      1.000000   UC..0477  -1965.000000
    y...0478  OBJ.....      1.000000   UC..0478  -1965.000000
    y...0479  OBJ.....      1.000000   UC..0479  -1965.000000
    y...0480  OBJ.....      1.000000   UC..0480  -1965.000000
    y...0481  OBJ.....      1.000000   UC..0481  -1965.000000
    y...0482  OBJ.....      1.000000   UC..0482  -1965.000000
    y...0483  OBJ.....      1.000000   UC..0483  -1965.000000
    y...0484  OBJ.....      1.000000   UC..0484  -1965.000000
    y...0485  OBJ.....      1.000000   UC..0485  -1965.000000
    y...0486  OBJ.....      1.000000   UC..0486  -1965.000000
    y...0487  OBJ.....      1.000000   UC..0487  -1965.000000
    y...0488  OBJ.....      1.000000   UC..0488  -1965.000000
    y...0489  OBJ.....      1.000000   UC..0489  -1965.000000
    y...0490  OBJ.....      1.000000   UC..0490  -1965.000000
    y...0491  OBJ.....      1.000000   UC..0491  -1965.000000
    y...0492  OBJ.....      1.000000   UC..0492  -1965.000000
    y...0493  OBJ.....      1.000000   UC..0493  -1965.000000
    y...0494  OBJ.....      1.000000   UC..0494  -1965.000000
    y...0495  OBJ.....      1.000000   UC..0495  -1965.000000
    y...0496  OBJ.....      1.000000   UC..0496  -1965.000000
    y...0497  OBJ.....      1.000000   UC..0497  -1965.000000
    y...0498  OBJ.....      1.000000   UC..0498  -1965.000000
    y...0499  OBJ.....      1.000000   UC..0499  -1965.000000
    y...0500  OBJ.....      1.000000   UC..0500  -1965.000000
    y...0501  OBJ.....      1.000000   UC..0501  -1965.000000
    y...0502  OBJ.....      1.000000   UC..0502  -1965.000000
    y...0503  OBJ.....      1.000000   UC..0503  -1965.000000
    y...0504  OBJ.....      1.000000   UC..0504  -1965.000000
    y...0505  OBJ.....      1.000000   UC..0505  -1965.000000
    y...0506  OBJ.....      1.000000   UC..0506  -1965.000000
    y...0507  OBJ.....      1.000000   UC..0507  -1965.000000
    y...0508  OBJ.....      1.000000   UC..0508  -1965.000000
    y...0509  OBJ.....      1.000000   UC..0509  -1965.000000
    y...0510  OBJ.....      1.000000   UC..0510  -1965.000000
    y...0511  OBJ.....      1.000000   UC..0511  -1965.000000
    y...0512  OBJ.....      1.000000   UC..0512  -1965.000000
    y...0513  OBJ.....      1.000000   UC..0513  -1965.000000
    y...0514  OBJ.....      1.000000   UC..0514  -1965.000000
    y...0515  OBJ.....      1.000000   UC..0515  -1965.000000
    y...0516  OBJ.....      1.000000   UC..0516  -1965.000000
    y...0517  OBJ.....      1.000000   UC..0517  -1965.000000
    y...0518  OBJ.....      1.000000   UC..0518  -1965.000000
    y...0519  OBJ.....      1.000000   UC..0519  -1965.000000
    y...0520  OBJ.....      1.000000   UC..0520  -1965.000000
    y...0521  OBJ.....      1.000000   UC..0521  -1965.000000
    y...0522  OBJ.....      1.000000   UC..0522  -1965.000000
    y...0523  OBJ.....      1.000000   UC..0523  -1965.000000
    y...0524  OBJ.....      1.000000   UC..0524  -1965.000000
    y...0525  OBJ.....      1.000000   UC..0525  -1965.000000
    y...0526  OBJ.....      1.000000   UC..0526  -1965.000000
    y...0527  OBJ.....      1.000000   UC..0527  -1965.000000
    y...0528  OBJ.....      1.000000   UC..0528  -1965.000000
    y...0529  OBJ.....      1.000000   UC..0529  -1965.000000
    y...0530  OBJ.....      1.000000   UC..0530  -1965.000000
    y...0531  OBJ.....      1.000000   UC..0531  -1965.000000
    y...0532  OBJ.....      1.000000   UC..0532  -1965.000000
    y...0533  OBJ.....      1.000000   UC..0533  -1965.000000
    y...0534  OBJ.....      1.000000   UC..0534  -1965.000000
    y...0535  OBJ.....      1.000000   UC..0535  -1965.000000
    y...0536  OBJ.....      1.000000   UC..0536  -1965.000000
    y...0537  OBJ.....      1.000000   UC..0537  -1965.000000
    y...0538  OBJ.....      1.000000   UC..0538  -1965.000000
    y...0539  OBJ.....      1.000000   UC..0539  -1965.000000
    y...0540  OBJ.....      1.000000   UC..0540  -1965.000000
    y...0541  OBJ.....      1.000000   UC..0541  -1965.000000
    y...0542  OBJ.....      1.000000   UC..0542  -1965.000000
    y...0543  OBJ.....      1.000000   UC..0543  -1965.000000
    y...0544  OBJ.....      1.000000   UC..0544  -1965.000000
    y...0545  OBJ.....      1.000000   UC..0545  -1965.000000
    y...0546  OBJ.....      1.000000   UC..0546  -1965.000000
    y...0547  OBJ.....      1.000000   UC..0547  -1965.000000
    y...0548  OBJ.....      1.000000   UC..0548  -1965.000000
    y...0549  OBJ.....      1.000000   UC..0549  -1965.000000
    y...0550  OBJ.....      1.000000   UC..0550  -1965.000000
    y...0551  OBJ.....      1.000000   UC..0551  -1965.000000
    y...0552  OBJ.....      1.000000   UC..0552  -1965.000000
    y...0553  OBJ.....      1.000000   UC..0553  -1965.000000
    y...0554  OBJ.....      1.000000   UC..0554  -1965.000000
    y...0555  OBJ.....      1.000000   UC..0555  -1965.000000
    y...0556  OBJ.....      1.000000   UC..0556  -1965.000000
    y...0557  OBJ.....      1.000000   UC..0557  -1965.000000
    y...0558  OBJ.....      1.000000   UC..0558  -1965.000000
    y...0559  OBJ.....      1.000000   UC..0559  -1965.000000
    y...0560  OBJ.....      1.000000   UC..0560  -1965.000000
    y...0561  OBJ.....      1.000000   UC..0561  -1965.000000
    y...0562  OBJ.....      1.000000   UC..0562  -1965.000000
    y...0563  OBJ.....      1.000000   UC..0563  -1965.000000
    y...0564  OBJ.....      1.000000   UC..0564  -1965.000000
    y...0565  OBJ.....      1.000000   UC..0565  -1965.000000
    y...0566  OBJ.....      1.000000   UC..0566  -1965.000000
    y...0567  OBJ.....      1.000000   UC..0567  -1965.000000
    y...0568  OBJ.....      1.000000   UC..0568  -1965.000000
    y...0569  OBJ.....      1.000000   UC..0569  -1965.000000
    y...0570  OBJ.....      1.000000   UC..0570  -1965.000000
    y...0571  OBJ.....      1.000000   UC..0571  -1965.000000
    y...0572  OBJ.....      1.000000   UC..0572  -1965.000000
    y...0573  OBJ.....      1.000000   UC..0573  -1965.000000
    y...0574  OBJ.....      1.000000   UC..0574  -1965.000000
    y...0575  OBJ.....      1.000000   UC..0575  -1965.000000
    y...0576  OBJ.....      1.000000   UC..0576  -1965.000000
    y...0577  OBJ.....      1.000000   UC..0577  -1965.000000
    y...0578  OBJ.....      1.000000   UC..0578  -1965.000000
    y...0579  OBJ.....      1.000000   UC..0579  -1965.000000
    y...0580  OBJ.....      1.000000   UC..0580  -1965.000000
    y...0581  OBJ.....      1.000000   UC..0581  -1965.000000
    y...0582  OBJ.....      1.000000   UC..0582  -1965.000000
    y...0583  OBJ.....      1.000000   UC..0583  -1965.000000
    y...0584  OBJ.....      1.000000   UC..0584  -1965.000000
    y...0585  OBJ.....      1.000000   UC..0585  -1965.000000
    y...0586  OBJ.....      1.000000   UC..0586  -1965.000000
    y...0587  OBJ.....      1.000000   UC..0587  -1965.000000
    y...0588  OBJ.....      1.000000   UC..0588  -1965.000000
    y...0589  OBJ.....      1.000000   UC..0589  -1965.000000
    y...0590  OBJ.....      1.000000   UC..0590  -1965.000000
    y...0591  OBJ.....      1.000000   UC..0591  -1965.000000
    y...0592  OBJ.....      1.000000   UC..0592  -1965.000000
    y...0593  OBJ.....      1.000000   UC..0593  -1965.000000
    y...0594  OBJ.....      1.000000   UC..0594  -1965.000000
    y...0595  OBJ.....      1.000000   UC..0595  -1965.000000
    y...0596  OBJ.....      1.000000   UC..0596  -1965.000000
    y...0597  OBJ.....      1.000000   UC..0597  -1965.000000
    y...0598  OBJ.....      1.000000   UC..0598  -1965.000000
    y...0599  OBJ.....      1.000000   UC..0599  -1965.000000
    y...0600  OBJ.....      1.000000   UC..0600  -1965.000000
    y...0601  OBJ.....      1.000000   UC..0601  -1965.000000
    y...0602  OBJ.....      1.000000   UC..0602  -1965.000000
    y...0603  OBJ.....      1.000000   UC..0603  -1965.000000
    y...0604  OBJ.....      1.000000   UC..0604  -1965.000000
    y...0605  OBJ.....      1.000000   UC..0605  -1965.000000
    y...0606  OBJ.....      1.000000   UC..0606  -1965.000000
    y...0607  OBJ.....      1.000000   UC..0607  -1965.000000
    y...0608  OBJ.....      1.000000   UC..0608  -1965.000000
    y...0609  OBJ.....      1.000000   UC..0609  -1965.000000
    y...0610  OBJ.....      1.000000   UC..0610  -1965.000000
    y...0611  OBJ.....      1.000000   UC..0611  -1965.000000
    y...0612  OBJ.....      1.000000   UC..0612  -1965.000000
    y...0613  OBJ.....      1.000000   UC..0613  -1965.000000
    y...0614  OBJ.....      1.000000   UC..0614  -1965.000000
    y...0615  OBJ.....      1.000000   UC..0615  -1965.000000
    y...0616  OBJ.....      1.000000   UC..0616  -1965.000000
    y...0617  OBJ.....      1.000000   UC..0617  -1965.000000
    y...0618  OBJ.....      1.000000   UC..0618  -1965.000000
    y...0619  OBJ.....      1.000000   UC..0619  -1965.000000
    y...0620  OBJ.....      1.000000   UC..0620  -1965.000000
    y...0621  OBJ.....      1.000000   UC..0621  -1965.000000
    y...0622  OBJ.....      1.000000   UC..0622  -1965.000000
    y...0623  OBJ.....      1.000000   UC..0623  -1965.000000
    y...0624  OBJ.....      1.000000   UC..0624  -1965.000000
    y...0625  OBJ.....      1.000000   UC..0625  -1965.000000
    y...0626  OBJ.....      1.000000   UC..0626  -1965.000000
    y...0627  OBJ.....      1.000000   UC..0627  -1965.000000
    y...0628  OBJ.....      1.000000   UC..0628  -1965.000000
    y...0629  OBJ.....      1.000000   UC..0629  -1965.000000
    y...0630  OBJ.....      1.000000   UC..0630  -1965.000000
    y...0631  OBJ.....      1.000000   UC..0631  -1965.000000
    y...0632  OBJ.....      1.000000   UC..0632  -1965.000000
    y...0633  OBJ.....      1.000000   UC..0633  -1965.000000
    y...0634  OBJ.....      1.000000   UC..0634  -1965.000000
    y...0635  OBJ.....      1.000000   UC..0635  -1965.000000
    y...0636  OBJ.....      1.000000   UC..0636  -1965.000000
    y...0637  OBJ.....      1.000000   UC..0637  -1965.000000
    y...0638  OBJ.....      1.000000   UC..0638  -1965.000000
    y...0639  OBJ.....      1.000000   UC..0639  -1965.000000
    y...0640  OBJ.....      1.000000   UC..0640  -1965.000000
    y...0641  OBJ.....      1.000000   UC..0641  -1965.000000
    y...0642  OBJ.....      1.000000   UC..0642  -1965.000000
    y...0643  OBJ.....      1.000000   UC..0643  -1965.000000
    y...0644  OBJ.....      1.000000   UC..0644  -1965.000000
    y...0645  OBJ.....      1.000000   UC..0645  -1965.000000
    y...0646  OBJ.....      1.000000   UC..0646  -1965.000000
    y...0647  OBJ.....      1.000000   UC..0647  -1965.000000
    y...0648  OBJ.....      1.000000   UC..0648  -1965.000000
    y...0649  OBJ.....      1.000000   UC..0649  -1965.000000
    y...0650  OBJ.....      1.000000   UC..0650  -1965.000000
    y...0651  OBJ.....      1.000000   UC..0651  -1965.000000
    y...0652  OBJ.....      1.000000   UC..0652  -1965.000000
    y...0653  OBJ.....      1.000000   UC..0653  -1965.000000
    y...0654  OBJ.....      1.000000   UC..0654  -1965.000000
    y...0655  OBJ.....      1.000000   UC..0655  -1965.000000
    y...0656  OBJ.....      1.000000   UC..0656  -1965.000000
    y...0657  OBJ.....      1.000000   UC..0657  -1965.000000
    y...0658  OBJ.....      1.000000   UC..0658  -1965.000000
    y...0659  OBJ.....      1.000000   UC..0659  -1965.000000
    y...0660  OBJ.....      1.000000   UC..0660  -1965.000000
    y...0661  OBJ.....      1.000000   UC..0661  -1965.000000
    y...0662  OBJ.....      1.000000   UC..0662  -1965.000000
    y...0663  OBJ.....      1.000000   UC..0663  -1965.000000
    y...0664  OBJ.....      1.000000   UC..0664  -1965.000000
    y...0665  OBJ.....      1.000000   UC..0665  -1965.000000
    y...0666  OBJ.....      1.000000   UC..0666  -1965.000000
    y...0667  OBJ.....      1.000000   UC..0667  -1965.000000
    y...0668  OBJ.....      1.000000   UC..0668  -1965.000000
    y...0669  OBJ.....      1.000000   UC..0669  -1965.000000
    y...0670  OBJ.....      1.000000   UC..0670  -1965.000000
    y...0671  OBJ.....      1.000000   UC..0671  -1965.000000
    y...0672  OBJ.....      1.000000   UC..0672  -1965.000000
    y...0673  OBJ.....      1.000000   UC..0673  -1965.000000
    y...0674  OBJ.....      1.000000   UC..0674  -1965.000000
    y...0675  OBJ.....      1.000000   UC..0675  -1965.000000
    y...0676  OBJ.....      1.000000   UC..0676  -1965.000000
    y...0677  OBJ.....      1.000000   UC..0677  -1965.000000
    y...0678  OBJ.....      1.000000   UC..0678  -1965.000000
    y...0679  OBJ.....      1.000000   UC..0679  -1965.000000
    y...0680  OBJ.....      1.000000   UC..0680  -1965.000000
    y...0681  OBJ.....      1.000000   UC..0681  -1965.000000
    y...0682  OBJ.....      1.000000   UC..0682  -1965.000000
    y...0683  OBJ.....      1.000000   UC..0683  -1965.000000
    y...0684  OBJ.....      1.000000   UC..0684  -1965.000000
    y...0685  OBJ.....      1.000000   UC..0685  -1965.000000
    y...0686  OBJ.....      1.000000   UC..0686  -1965.000000
    y...0687  OBJ.....      1.000000   UC..0687  -1965.000000
    y...0688  OBJ.....      1.000000   UC..0688  -1965.000000
    y...0689  OBJ.....      1.000000   UC..0689  -1965.000000
    y...0690  OBJ.....      1.000000   UC..0690  -1965.000000
    y...0691  OBJ.....      1.000000   UC..0691  -1965.000000
    y...0692  OBJ.....      1.000000   UC..0692  -1965.000000
    y...0693  OBJ.....      1.000000   UC..0693  -1965.000000
    y...0694  OBJ.....      1.000000   UC..0694  -1965.000000
    y...0695  OBJ.....      1.000000   UC..0695  -1965.000000
    y...0696  OBJ.....      1.000000   UC..0696  -1965.000000
    y...0697  OBJ.....      1.000000   UC..0697  -1965.000000
    y...0698  OBJ.....      1.000000   UC..0698  -1965.000000
    y...0699  OBJ.....      1.000000   UC..0699  -1965.000000
    y...0700  OBJ.....      1.000000   UC..0700  -1965.000000
    y...0701  OBJ.....      1.000000   UC..0701  -1965.000000
    y...0702  OBJ.....      1.000000   UC..0702  -1965.000000
    y...0703  OBJ.....      1.000000   UC..0703  -1965.000000
    y...0704  OBJ.....      1.000000   UC..0704  -1965.000000
    y...0705  OBJ.....      1.000000   UC..0705  -1965.000000
    y...0706  OBJ.....      1.000000   UC..0706  -1965.000000
    y...0707  OBJ.....      1.000000   UC..0707  -1965.000000
    y...0708  OBJ.....      1.000000   UC..0708  -1965.000000
    y...0709  OBJ.....      1.000000   UC..0709  -1965.000000
    y...0710  OBJ.....      1.000000   UC..0710  -1965.000000
    y...0711  OBJ.....      1.000000   UC..0711  -1965.000000
    y...0712  OBJ.....      1.000000   UC..0712  -1965.000000
    y...0713  OBJ.....      1.000000   UC..0713  -1965.000000
    y...0714  OBJ.....      1.000000   UC..0714  -1965.000000
    y...0715  OBJ.....      1.000000   UC..0715  -1965.000000
    y...0716  OBJ.....      1.000000   UC..0716  -1965.000000
    y...0717  OBJ.....      1.000000   UC..0717  -1965.000000
    y...0718  OBJ.....      1.000000   UC..0718  -1965.000000
    y...0719  OBJ.....      1.000000   UC..0719  -1965.000000
    y...0720  OBJ.....      1.000000   UC..0720  -1965.000000
    y...0721  OBJ.....      1.000000   UC..0721  -1965.000000
    y...0722  OBJ.....      1.000000   UC..0722  -1965.000000
    y...0723  OBJ.....      1.000000   UC..0723  -1965.000000
    y...0724  OBJ.....      1.000000   UC..0724  -1965.000000
    y...0725  OBJ.....      1.000000   UC..0725  -1965.000000
    y...0726  OBJ.....      1.000000   UC..0726  -1965.000000
    y...0727  OBJ.....      1.000000   UC..0727  -1965.000000
    y...0728  OBJ.....      1.000000   UC..0728  -1965.000000
    y...0729  OBJ.....      1.000000   UC..0729  -1965.000000
    y...0730  OBJ.....      1.000000   UC..0730  -1965.000000
    y...0731  OBJ.....      1.000000   UC..0731  -1965.000000
    y...0732  OBJ.....      1.000000   UC..0732  -1965.000000
    y...0733  OBJ.....      1.000000   UC..0733  -1965.000000
    y...0734  OBJ.....      1.000000   UC..0734  -1965.000000
    y...0735  OBJ.....      1.000000   UC..0735  -1965.000000
    y...0736  OBJ.....      1.000000   UC..0736  -1965.000000
    y...0737  OBJ.....      1.000000   UC..0737  -1965.000000
    y...0738  OBJ.....      1.000000   UC..0738  -1965.000000
    y...0739  OBJ.....      1.000000   UC..0739  -1965.000000
    y...0740  OBJ.....      1.000000   UC..0740  -1965.000000
    y...0741  OBJ.....      1.000000   UC..0741  -1965.000000
    y...0742  OBJ.....      1.000000   UC..0742  -1965.000000
    y...0743  OBJ.....      1.000000   UC..0743  -1965.000000
    y...0744  OBJ.....      1.000000   UC..0744  -1965.000000
    y...0745  OBJ.....      1.000000   UC..0745  -1965.000000
    y...0746  OBJ.....      1.000000   UC..0746  -1965.000000
    y...0747  OBJ.....      1.000000   UC..0747  -1965.000000
    y...0748  OBJ.....      1.000000   UC..0748  -1965.000000
    y...0749  OBJ.....      1.000000   UC..0749  -1965.000000
    y...0750  OBJ.....      1.000000   UC..0750  -1965.000000
    y...0751  OBJ.....      1.000000   UC..0751  -1965.000000
    y...0752  OBJ.....      1.000000   UC..0752  -1965.000000
    y...0753  OBJ.....      1.000000   UC..0753  -1965.000000
    y...0754  OBJ.....      1.000000   UC..0754  -1965.000000
    y...0755  OBJ.....      1.000000   UC..0755  -1965.000000
    y...0756  OBJ.....      1.000000   UC..0756  -1965.000000
    y...0757  OBJ.....      1.000000   UC..0757  -1965.000000
    y...0758  OBJ.....      1.000000   UC..0758  -1965.000000
    y...0759  OBJ.....      1.000000   UC..0759  -1965.000000
    y...0760  OBJ.....      1.000000   UC..0760  -1965.000000
    y...0761  OBJ.....      1.000000   UC..0761  -1965.000000
    y...0762  OBJ.....      1.000000   UC..0762  -1965.000000
    y...0763  OBJ.....      1.000000   UC..0763  -1965.000000
    y...0764  OBJ.....      1.000000   UC..0764  -1965.000000
    y...0765  OBJ.....      1.000000   UC..0765  -1965.000000
    y...0766  OBJ.....      1.000000   UC..0766  -1965.000000
    y...0767  OBJ.....      1.000000   UC..0767  -1965.000000
    y...0768  OBJ.....      1.000000   UC..0768  -1965.000000
    y...0769  OBJ.....      1.000000   UC..0769  -1965.000000
    y...0770  OBJ.....      1.000000   UC..0770  -1965.000000
    y...0771  OBJ.....      1.000000   UC..0771  -1965.000000
    y...0772  OBJ.....      1.000000   UC..0772  -1965.000000
    y...0773  OBJ.....      1.000000   UC..0773  -1965.000000
    y...0774  OBJ.....      1.000000   UC..0774  -1965.000000
    y...0775  OBJ.....      1.000000   UC..0775  -1965.000000
    y...0776  OBJ.....      1.000000   UC..0776  -1965.000000
    y...0777  OBJ.....      1.000000   UC..0777  -1965.000000
    y...0778  OBJ.....      1.000000   UC..0778  -1965.000000
    y...0779  OBJ.....      1.000000   UC..0779  -1965.000000
    y...0780  OBJ.....      1.000000   UC..0780  -1965.000000
    y...0781  OBJ.....      1.000000   UC..0781  -1965.000000
    y...0782  OBJ.....      1.000000   UC..0782  -1965.000000
    y...0783  OBJ.....      1.000000   UC..0783  -1965.000000
    y...0784  OBJ.....      1.000000   UC..0784  -1965.000000
    y...0785  OBJ.....      1.000000   UC..0785  -1965.000000
    y...0786  OBJ.....      1.000000   UC..0786  -1965.000000
    y...0787  OBJ.....      1.000000   UC..0787  -1965.000000
    y...0788  OBJ.....      1.000000   UC..0788  -1965.000000
    y...0789  OBJ.....      1.000000   UC..0789  -1965.000000
    y...0790  OBJ.....      1.000000   UC..0790  -1965.000000
    y...0791  OBJ.....      1.000000   UC..0791  -1965.000000
    y...0792  OBJ.....      1.000000   UC..0792  -1965.000000
    y...0793  OBJ.....      1.000000   UC..0793  -1965.000000
    y...0794  OBJ.....      1.000000   UC..0794  -1965.000000
    y...0795  OBJ.....      1.000000   UC..0795  -1965.000000
    y...0796  OBJ.....      1.000000   UC..0796  -1965.000000
    y...0797  OBJ.....      1.000000   UC..0797  -1965.000000
    y...0798  OBJ.....      1.000000   UC..0798  -1965.000000
    y...0799  OBJ.....      1.000000   UC..0799  -1965.000000
    y...0800  OBJ.....      1.000000   UC..0800  -1965.000000
    y...0801  OBJ.....      1.000000   UC..0801  -1965.000000
    y...0802  OBJ.....      1.000000   UC..0802  -1965.000000
    y...0803  OBJ.....      1.000000   UC..0803  -1965.000000
    y...0804  OBJ.....      1.000000   UC..0804  -1965.000000
    y...0805  OBJ.....      1.000000   UC..0805  -1965.000000
    y...0806  OBJ.....      1.000000   UC..0806  -1965.000000
    y...0807  OBJ.....      1.000000   UC..0807  -1965.000000
    y...0808  OBJ.....      1.000000   UC..0808  -1965.000000
    y...0809  OBJ.....      1.000000   UC..0809  -1965.000000
    y...0810  OBJ.....      1.000000   UC..0810  -1965.000000
    y...0811  OBJ.....      1.000000   UC..0811  -1965.000000
    y...0812  OBJ.....      1.000000   UC..0812  -1965.000000
    y...0813  OBJ.....      1.000000   UC..0813  -1965.000000
    y...0814  OBJ.....      1.000000   UC..0814  -1965.000000
    y...0815  OBJ.....      1.000000   UC..0815  -1965.000000
    y...0816  OBJ.....      1.000000   UC..0816  -1965.000000
    y...0817  OBJ.....      1.000000   UC..0817  -1965.000000
    y...0818  OBJ.....      1.000000   UC..0818  -1965.000000
    y...0819  OBJ.....      1.000000   UC..0819  -1965.000000
    y...0820  OBJ.....      1.000000   UC..0820  -1965.000000
    y...0821  OBJ.....      1.000000   UC..0821  -1965.000000
    y...0822  OBJ.....      1.000000   UC..0822  -1965.000000
    y...0823  OBJ.....      1.000000   UC..0823  -1965.000000
    y...0824  OBJ.....      1.000000   UC..0824  -1965.000000
    y...0825  OBJ.....      1.000000   UC..0825  -1965.000000
    y...0826  OBJ.....      1.000000   UC..0826  -1965.000000
    y...0827  OBJ.....      1.000000   UC..0827  -1965.000000
    y...0828  OBJ.....      1.000000   UC..0828  -1965.000000
    y...0829  OBJ.....      1.000000   UC..0829  -1965.000000
    y...0830  OBJ.....      1.000000   UC..0830  -1965.000000
    y...0831  OBJ.....      1.000000   UC..0831  -1965.000000
    y...0832  OBJ.....      1.000000   UC..0832  -1965.000000
    y...0833  OBJ.....      1.000000   UC..0833  -1965.000000
    y...0834  OBJ.....      1.000000   UC..0834  -1965.000000
    y...0835  OBJ.....      1.000000   UC..0835  -1965.000000
    y...0836  OBJ.....      1.000000   UC..0836  -1965.000000
    y...0837  OBJ.....      1.000000   UC..0837  -1965.000000
    y...0838  OBJ.....      1.000000   UC..0838  -1965.000000
    y...0839  OBJ.....      1.000000   UC..0839  -1965.000000
    y...0840  OBJ.....      1.000000   UC..0840  -1965.000000
    y...0841  OBJ.....      1.000000   UC..0841  -1965.000000
    y...0842  OBJ.....      1.000000   UC..0842  -1965.000000
    y...0843  OBJ.....      1.000000   UC..0843  -1965.000000
    y...0844  OBJ.....      1.000000   UC..0844  -1965.000000
    y...0845  OBJ.....      1.000000   UC..0845  -1965.000000
    y...0846  OBJ.....      1.000000   UC..0846  -1965.000000
    y...0847  OBJ.....      1.000000   UC..0847  -1965.000000
    y...0848  OBJ.....      1.000000   UC..0848  -1965.000000
    y...0849  OBJ.....      1.000000   UC..0849  -1965.000000
    y...0850  OBJ.....      1.000000   UC..0850  -1965.000000
    y...0851  OBJ.....      1.000000   UC..0851  -1965.000000
    y...0852  OBJ.....      1.000000   UC..0852  -1965.000000
    y...0853  OBJ.....      1.000000   UC..0853  -1965.000000
    y...0854  OBJ.....      1.000000   UC..0854  -1965.000000
    y...0855  OBJ.....      1.000000   UC..0855  -1965.000000
    y...0856  OBJ.....      1.000000   UC..0856  -1965.000000
    y...0857  OBJ.....      1.000000   UC..0857  -1965.000000
    y...0858  OBJ.....      1.000000   UC..0858  -1965.000000
    y...0859  OBJ.....      1.000000   UC..0859  -1965.000000
    y...0860  OBJ.....      1.000000   UC..0860  -1965.000000
    y...0861  OBJ.....      1.000000   UC..0861  -1965.000000
    y...0862  OBJ.....      1.000000   UC..0862  -1965.000000
    y...0863  OBJ.....      1.000000   UC..0863  -1965.000000
    y...0864  OBJ.....      1.000000   UC..0864  -1965.000000
    y...0865  OBJ.....      1.000000   UC..0865  -1965.000000
    y...0866  OBJ.....      1.000000   UC..0866  -1965.000000
    y...0867  OBJ.....      1.000000   UC..0867  -1965.000000
    y...0868  OBJ.....      1.000000   UC..0868  -1965.000000
    y...0869  OBJ.....      1.000000   UC..0869  -1965.000000
    y...0870  OBJ.....      1.000000   UC..0870  -1965.000000
    y...0871  OBJ.....      1.000000   UC..0871  -1965.000000
    y...0872  OBJ.....      1.000000   UC..0872  -1965.000000
    y...0873  OBJ.....      1.000000   UC..0873  -1965.000000
    y...0874  OBJ.....      1.000000   UC..0874  -1965.000000
    y...0875  OBJ.....      1.000000   UC..0875  -1965.000000
    y...0876  OBJ.....      1.000000   UC..0876  -1965.000000
    y...0877  OBJ.....      1.000000   UC..0877  -1965.000000
    y...0878  OBJ.....      1.000000   UC..0878  -1965.000000
    y...0879  OBJ.....      1.000000   UC..0879  -1965.000000
    y...0880  OBJ.....      1.000000   UC..0880  -1965.000000
    y...0881  OBJ.....      1.000000   UC..0881  -1965.000000
    y...0882  OBJ.....      1.000000   UC..0882  -1965.000000
    y...0883  OBJ.....      1.000000   UC..0883  -1965.000000
    y...0884  OBJ.....      1.000000   UC..0884  -1965.000000
    y...0885  OBJ.....      1.000000   UC..0885  -1965.000000
    y...0886  OBJ.....      1.000000   UC..0886  -1965.000000
    y...0887  OBJ.....      1.000000   UC..0887  -1965.000000
    y...0888  OBJ.....      1.000000   UC..0888  -1965.000000
    y...0889  OBJ.....      1.000000   UC..0889  -1965.000000
    y...0890  OBJ.....      1.000000   UC..0890  -1965.000000
    y...0891  OBJ.....      1.000000   UC..0891  -1965.000000
    y...0892  OBJ.....      1.000000   UC..0892  -1965.000000
    y...0893  OBJ.....      1.000000   UC..0893  -1965.000000
    y...0894  OBJ.....      1.000000   UC..0894  -1965.000000
    y...0895  OBJ.....      1.000000   UC..0895  -1965.000000
    y...0896  OBJ.....      1.000000   UC..0896  -1965.000000
    y...0897  OBJ.....      1.000000   UC..0897  -1965.000000
    y...0898  OBJ.....      1.000000   UC..0898  -1965.000000
    y...0899  OBJ.....      1.000000   UC..0899  -1965.000000
    y...0900  OBJ.....      1.000000   UC..0900  -1965.000000
    y...0901  OBJ.....      1.000000   UC..0901  -1965.000000
    y...0902  OBJ.....      1.000000   UC..0902  -1965.000000
    y...0903  OBJ.....      1.000000   UC..0903  -1965.000000
    y...0904  OBJ.....      1.000000   UC..0904  -1965.000000
    y...0905  OBJ.....      1.000000   UC..0905  -1965.000000
    y...0906  OBJ.....      1.000000   UC..0906  -1965.000000
    y...0907  OBJ.....      1.000000   UC..0907  -1965.000000
    y...0908  OBJ.....      1.000000   UC..0908  -1965.000000
    y...0909  OBJ.....      1.000000   UC..0909  -1965.000000
    y...0910  OBJ.....      1.000000   UC..0910  -1965.000000
    y...0911  OBJ.....      1.000000   UC..0911  -1965.000000
    y...0912  OBJ.....      1.000000   UC..0912  -1965.000000
    y...0913  OBJ.....      1.000000   UC..0913  -1965.000000
    y...0914  OBJ.....      1.000000   UC..0914  -1965.000000
    y...0915  OBJ.....      1.000000   UC..0915  -1965.000000
    y...0916  OBJ.....      1.000000   UC..0916  -1965.000000
    y...0917  OBJ.....      1.000000   UC..0917  -1965.000000
    y...0918  OBJ.....      1.000000   UC..0918  -1965.000000
    y...0919  OBJ.....      1.000000   UC..0919  -1965.000000
    y...0920  OBJ.....      1.000000   UC..0920  -1965.000000
    y...0921  OBJ.....      1.000000   UC..0921  -1965.000000
    y...0922  OBJ.....      1.000000   UC..0922  -1965.000000
    y...0923  OBJ.....      1.000000   UC..0923  -1965.000000
    y...0924  OBJ.....      1.000000   UC..0924  -1965.000000
    y...0925  OBJ.....      1.000000   UC..0925  -1965.000000
    y...0926  OBJ.....      1.000000   UC..0926  -1965.000000
    y...0927  OBJ.....      1.000000   UC..0927  -1965.000000
    y...0928  OBJ.....      1.000000   UC..0928  -1965.000000
    y...0929  OBJ.....      1.000000   UC..0929  -1965.000000
    y...0930  OBJ.....      1.000000   UC..0930  -1965.000000
    y...0931  OBJ.....      1.000000   UC..0931  -1965.000000
    y...0932  OBJ.....      1.000000   UC..0932  -1965.000000
    y...0933  OBJ.....      1.000000   UC..0933  -1965.000000
    y...0934  OBJ.....      1.000000   UC..0934  -1965.000000
    y...0935  OBJ.....      1.000000   UC..0935  -1965.000000
    y...0936  OBJ.....      1.000000   UC..0936  -1965.000000
    y...0937  OBJ.....      1.000000   UC..0937  -1965.000000
    y...0938  OBJ.....      1.000000   UC..0938  -1965.000000
    y...0939  OBJ.....      1.000000   UC..0939  -1965.000000
    y...0940  OBJ.....      1.000000   UC..0940  -1965.000000
    y...0941  OBJ.....      1.000000   UC..0941  -1965.000000
    y...0942  OBJ.....      1.000000   UC..0942  -1965.000000
    y...0943  OBJ.....      1.000000   UC..0943  -1965.000000
    y...0944  OBJ.....      1.000000   UC..0944  -1965.000000
    y...0945  OBJ.....      1.000000   UC..0945  -1965.000000
    y...0946  OBJ.....      1.000000   UC..0946  -1965.000000
    y...0947  OBJ.....      1.000000   UC..0947  -1965.000000
    y...0948  OBJ.....      1.000000   UC..0948  -1965.000000
    y...0949  OBJ.....      1.000000   UC..0949  -1965.000000
    y...0950  OBJ.....      1.000000   UC..0950  -1965.000000
    y...0951  OBJ.....      1.000000   UC..0951  -1965.000000
    y...0952  OBJ.....      1.000000   UC..0952  -1965.000000
    y...0953  OBJ.....      1.000000   UC..0953  -1965.000000
    y...0954  OBJ.....      1.000000   UC..0954  -1965.000000
    y...0955  OBJ.....      1.000000   UC..0955  -1965.000000
    y...0956  OBJ.....      1.000000   UC..0956  -1965.000000
    y...0957  OBJ.....      1.000000   UC..0957  -1965.000000
    y...0958  OBJ.....      1.000000   UC..0958  -1965.000000
    y...0959  OBJ.....      1.000000   UC..0959  -1965.000000
    y...0960  OBJ.....      1.000000   UC..0960  -1965.000000
    y...0961  OBJ.....      1.000000   UC..0961  -1965.000000
    y...0962  OBJ.....      1.000000   UC..0962  -1965.000000
    y...0963  OBJ.....      1.000000   UC..0963  -1965.000000
    y...0964  OBJ.....      1.000000   UC..0964  -1965.000000
    y...0965  OBJ.....      1.000000   UC..0965  -1965.000000
    y...0966  OBJ.....      1.000000   UC..0966  -1965.000000
    y...0967  OBJ.....      1.000000   UC..0967  -1965.000000
    y...0968  OBJ.....      1.000000   UC..0968  -1965.000000
    y...0969  OBJ.....      1.000000   UC..0969  -1965.000000
    y...0970  OBJ.....      1.000000   UC..0970  -1965.000000
    y...0971  OBJ.....      1.000000   UC..0971  -1965.000000
    y...0972  OBJ.....      1.000000   UC..0972  -1965.000000
    y...0973  OBJ.....      1.000000   UC..0973  -1965.000000
    y...0974  OBJ.....      1.000000   UC..0974  -1965.000000
    y...0975  OBJ.....      1.000000   UC..0975  -1965.000000
    y...0976  OBJ.....      1.000000   UC..0976  -1965.000000
    y...0977  OBJ.....      1.000000   UC..0977  -1965.000000
    y...0978  OBJ.....      1.000000   UC..0978  -1965.000000
    y...0979  OBJ.....      1.000000   UC..0979  -1965.000000
    y...0980  OBJ.....      1.000000   UC..0980  -1965.000000
    y...0981  OBJ.....      1.000000   UC..0981  -1965.000000
    y...0982  OBJ.....      1.000000   UC..0982  -1965.000000
    y...0983  OBJ.....      1.000000   UC..0983  -1965.000000
    y...0984  OBJ.....      1.000000   UC..0984  -1965.000000
    y...0985  OBJ.....      1.000000   UC..0985  -1965.000000
    y...0986  OBJ.....      1.000000   UC..0986  -1965.000000
    y...0987  OBJ.....      1.000000   UC..0987  -1965.000000
    y...0988  OBJ.....      1.000000   UC..0988  -1965.000000
    y...0989  OBJ.....      1.000000   UC..0989  -1965.000000
    y...0990  OBJ.....      1.000000   UC..0990  -1965.000000
    y...0991  OBJ.....      1.000000   UC..0991  -1965.000000
    y...0992  OBJ.....      1.000000   UC..0992  -1965.000000
    y...0993  OBJ.....      1.000000   UC..0993  -1965.000000
    y...0994  OBJ.....      1.000000   UC..0994  -1965.000000
    y...0995  OBJ.....      1.000000   UC..0995  -1965.000000
    y...0996  OBJ.....      1.000000   UC..0996  -1965.000000
    y...0997  OBJ.....      1.000000   UC..0997  -1965.000000
    y...0998  OBJ.....      1.000000   UC..0998  -1965.000000
    y...0999  OBJ.....      1.000000   UC..0999  -1965.000000
    y...1000  OBJ.....      1.000000   UC..1000  -1965.000000
    y...1001  OBJ.....      1.000000   UC..1001  -1965.000000
    y...1002  OBJ.....      1.000000   UC..1002  -1965.000000
    y...1003  OBJ.....      1.000000   UC..1003  -1965.000000
    y...1004  OBJ.....      1.000000   UC..1004  -1965.000000
    y...1005  OBJ.....      1.000000   UC..1005  -1965.000000
    y...1006  OBJ.....      1.000000   UC..1006  -1965.000000
    y...1007  OBJ.....      1.000000   UC..1007  -1965.000000
    y...1008  OBJ.....      1.000000   UC..1008  -1965.000000
    y...1009  OBJ.....      1.000000   UC..1009  -1965.000000
    y...1010  OBJ.....      1.000000   UC..1010  -1965.000000
    y...1011  OBJ.....      1.000000   UC..1011  -1965.000000
    y...1012  OBJ.....      1.000000   UC..1012  -1965.000000
    y...1013  OBJ.....      1.000000   UC..1013  -1965.000000
    y...1014  OBJ.....      1.000000   UC..1014  -1965.000000
    y...1015  OBJ.....      1.000000   UC..1015  -1965.000000
    y...1016  OBJ.....      1.000000   UC..1016  -1965.000000
    y...1017  OBJ.....      1.000000   UC..1017  -1965.000000
    y...1018  OBJ.....      1.000000   UC..1018  -1965.000000
    y...1019  OBJ.....      1.000000   UC..1019  -1965.000000
    y...1020  OBJ.....      1.000000   UC..1020  -1965.000000
    y...1021  OBJ.....      1.000000   UC..1021  -1965.000000
    y...1022  OBJ.....      1.000000   UC..1022  -1965.000000
    y...1023  OBJ.....      1.000000   UC..1023  -1965.000000
    y...1024  OBJ.....      1.000000   UC..1024  -1965.000000
    y...1025  OBJ.....      1.000000   UC..1025  -1965.000000
    y...1026  OBJ.....      1.000000   UC..1026  -1965.000000
    y...1027  OBJ.....      1.000000   UC..1027  -1965.000000
    y...1028  OBJ.....      1.000000   UC..1028  -1965.000000
    y...1029  OBJ.....      1.000000   UC..1029  -1965.000000
    y...1030  OBJ.....      1.000000   UC..1030  -1965.000000
    y...1031  OBJ.....      1.000000   UC..1031  -1965.000000
    y...1032  OBJ.....      1.000000   UC..1032  -1965.000000
    y...1033  OBJ.....      1.000000   UC..1033  -1965.000000
    y...1034  OBJ.....      1.000000   UC..1034  -1965.000000
    y...1035  OBJ.....      1.000000   UC..1035  -1965.000000
    y...1036  OBJ.....      1.000000   UC..1036  -1965.000000
    y...1037  OBJ.....      1.000000   UC..1037  -1965.000000
    y...1038  OBJ.....      1.000000   UC..1038  -1965.000000
    y...1039  OBJ.....      1.000000   UC..1039  -1965.000000
    y...1040  OBJ.....      1.000000   UC..1040  -1965.000000
    y...1041  OBJ.....      1.000000   UC..1041  -1965.000000
    y...1042  OBJ.....      1.000000   UC..1042  -1965.000000
    y...1043  OBJ.....      1.000000   UC..1043  -1965.000000
    y...1044  OBJ.....      1.000000   UC..1044  -1965.000000
    y...1045  OBJ.....      1.000000   UC..1045  -1965.000000
    y...1046  OBJ.....      1.000000   UC..1046  -1965.000000
    y...1047  OBJ.....      1.000000   UC..1047  -1965.000000
    y...1048  OBJ.....      1.000000   UC..1048  -1965.000000
    y...1049  OBJ.....      1.000000   UC..1049  -1965.000000
    y...1050  OBJ.....      1.000000   UC..1050  -1965.000000
    y...1051  OBJ.....      1.000000   UC..1051  -1965.000000
    y...1052  OBJ.....      1.000000   UC..1052  -1965.000000
    y...1053  OBJ.....      1.000000   UC..1053  -1965.000000
    y...1054  OBJ.....      1.000000   UC..1054  -1965.000000
    y...1055  OBJ.....      1.000000   UC..1055  -1965.000000
    y...1056  OBJ.....      1.000000   UC..1056  -1965.000000
    y...1057  OBJ.....      1.000000   UC..1057  -1965.000000
    y...1058  OBJ.....      1.000000   UC..1058  -1965.000000
    y...1059  OBJ.....      1.000000   UC..1059  -1965.000000
    y...1060  OBJ.....      1.000000   UC..1060  -1965.000000
    y...1061  OBJ.....      1.000000   UC..1061  -1965.000000
    y...1062  OBJ.....      1.000000   UC..1062  -1965.000000
    y...1063  OBJ.....      1.000000   UC..1063  -1965.000000
    y...1064  OBJ.....      1.000000   UC..1064  -1965.000000
    y...1065  OBJ.....      1.000000   UC..1065  -1965.000000
    y...1066  OBJ.....      1.000000   UC..1066  -1965.000000
    y...1067  OBJ.....      1.000000   UC..1067  -1965.000000
    y...1068  OBJ.....      1.000000   UC..1068  -1965.000000
    y...1069  OBJ.....      1.000000   UC..1069  -1965.000000
    y...1070  OBJ.....      1.000000   UC..1070  -1965.000000
    y...1071  OBJ.....      1.000000   UC..1071  -1965.000000
    y...1072  OBJ.....      1.000000   UC..1072  -1965.000000
    y...1073  OBJ.....      1.000000   UC..1073  -1965.000000
    y...1074  OBJ.....      1.000000   UC..1074  -1965.000000
    y...1075  OBJ.....      1.000000   UC..1075  -1965.000000
    y...1076  OBJ.....      1.000000   UC..1076  -1965.000000
    y...1077  OBJ.....      1.000000   UC..1077  -1965.000000
    y...1078  OBJ.....      1.000000   UC..1078  -1965.000000
    y...1079  OBJ.....      1.000000   UC..1079  -1965.000000
    y...1080  OBJ.....      1.000000   UC..1080  -1965.000000
    y...1081  OBJ.....      1.000000   UC..1081  -1965.000000
    y...1082  OBJ.....      1.000000   UC..1082  -1965.000000
    y...1083  OBJ.....      1.000000   UC..1083  -1965.000000
    y...1084  OBJ.....      1.000000   UC..1084  -1965.000000
    y...1085  OBJ.....      1.000000   UC..1085  -1965.000000
    y...1086  OBJ.....      1.000000   UC..1086  -1965.000000
    y...1087  OBJ.....      1.000000   UC..1087  -1965.000000
    y...1088  OBJ.....      1.000000   UC..1088  -1965.000000
    y...1089  OBJ.....      1.000000   UC..1089  -1965.000000
    y...1090  OBJ.....      1.000000   UC..1090  -1965.000000
    y...1091  OBJ.....      1.000000   UC..1091  -1965.000000
    y...1092  OBJ.....      1.000000   UC..1092  -1965.000000
    y...1093  OBJ.....      1.000000   UC..1093  -1965.000000
    y...1094  OBJ.....      1.000000   UC..1094  -1965.000000
    y...1095  OBJ.....      1.000000   UC..1095  -1965.000000
    y...1096  OBJ.....      1.000000   UC..1096  -1965.000000
    y...1097  OBJ.....      1.000000   UC..1097  -1965.000000
    y...1098  OBJ.....      1.000000   UC..1098  -1965.000000
    y...1099  OBJ.....      1.000000   UC..1099  -1965.000000
    y...1100  OBJ.....      1.000000   UC..1100  -1965.000000
    y...1101  OBJ.....      1.000000   UC..1101  -1965.000000
    y...1102  OBJ.....      1.000000   UC..1102  -1965.000000
    y...1103  OBJ.....      1.000000   UC..1103  -1965.000000
    y...1104  OBJ.....      1.000000   UC..1104  -1965.000000
    y...1105  OBJ.....      1.000000   UC..1105  -1965.000000
    y...1106  OBJ.....      1.000000   UC..1106  -1965.000000
    y...1107  OBJ.....      1.000000   UC..1107  -1965.000000
    y...1108  OBJ.....      1.000000   UC..1108  -1965.000000
    y...1109  OBJ.....      1.000000   UC..1109  -1965.000000
    y...1110  OBJ.....      1.000000   UC..1110  -1965.000000
    y...1111  OBJ.....      1.000000   UC..1111  -1965.000000
    y...1112  OBJ.....      1.000000   UC..1112  -1965.000000
    y...1113  OBJ.....      1.000000   UC..1113  -1965.000000
    y...1114  OBJ.....      1.000000   UC..1114  -1965.000000
    y...1115  OBJ.....      1.000000   UC..1115  -1965.000000
    y...1116  OBJ.....      1.000000   UC..1116  -1965.000000
    y...1117  OBJ.....      1.000000   UC..1117  -1965.000000
    y...1118  OBJ.....      1.000000   UC..1118  -1965.000000
    y...1119  OBJ.....      1.000000   UC..1119  -1965.000000
    y...1120  OBJ.....      1.000000   UC..1120  -1965.000000
    y...1121  OBJ.....      1.000000   UC..1121  -1965.000000
    y...1122  OBJ.....      1.000000   UC..1122  -1965.000000
    y...1123  OBJ.....      1.000000   UC..1123  -1965.000000
    y...1124  OBJ.....      1.000000   UC..1124  -1965.000000
    y...1125  OBJ.....      1.000000   UC..1125  -1965.000000
    y...1126  OBJ.....      1.000000   UC..1126  -1965.000000
    y...1127  OBJ.....      1.000000   UC..1127  -1965.000000
    y...1128  OBJ.....      1.000000   UC..1128  -1965.000000
    y...1129  OBJ.....      1.000000   UC..1129  -1965.000000
    y...1130  OBJ.....      1.000000   UC..1130  -1965.000000
    y...1131  OBJ.....      1.000000   UC..1131  -1965.000000
    y...1132  OBJ.....      1.000000   UC..1132  -1965.000000
    y...1133  OBJ.....      1.000000   UC..1133  -1965.000000
    y...1134  OBJ.....      1.000000   UC..1134  -1965.000000
    y...1135  OBJ.....      1.000000   UC..1135  -1965.000000
    y...1136  OBJ.....      1.000000   UC..1136  -1965.000000
    y...1137  OBJ.....      1.000000   UC..1137  -1965.000000
    y...1138  OBJ.....      1.000000   UC..1138  -1965.000000
    y...1139  OBJ.....      1.000000   UC..1139  -1965.000000
    y...1140  OBJ.....      1.000000   UC..1140  -1965.000000
    y...1141  OBJ.....      1.000000   UC..1141  -1965.000000
    y...1142  OBJ.....      1.000000   UC..1142  -1965.000000
    y...1143  OBJ.....      1.000000   UC..1143  -1965.000000
    y...1144  OBJ.....      1.000000   UC..1144  -1965.000000
    y...1145  OBJ.....      1.000000   UC..1145  -1965.000000
    y...1146  OBJ.....      1.000000   UC..1146  -1965.000000
    y...1147  OBJ.....      1.000000   UC..1147  -1965.000000
    y...1148  OBJ.....      1.000000   UC..1148  -1965.000000
    y...1149  OBJ.....      1.000000   UC..1149  -1965.000000
    y...1150  OBJ.....      1.000000   UC..1150  -1965.000000
    y...1151  OBJ.....      1.000000   UC..1151  -1965.000000
    y...1152  OBJ.....      1.000000   UC..1152  -1965.000000
    y...1153  OBJ.....      1.000000   UC..1153  -1965.000000
    y...1154  OBJ.....      1.000000   UC..1154  -1965.000000
    y...1155  OBJ.....      1.000000   UC..1155  -1965.000000
    y...1156  OBJ.....      1.000000   UC..1156  -1965.000000
    y...1157  OBJ.....      1.000000   UC..1157  -1965.000000
    y...1158  OBJ.....      1.000000   UC..1158  -1965.000000
    y...1159  OBJ.....      1.000000   UC..1159  -1965.000000
    y...1160  OBJ.....      1.000000   UC..1160  -1965.000000
    y...1161  OBJ.....      1.000000   UC..1161  -1965.000000
    y...1162  OBJ.....      1.000000   UC..1162  -1965.000000
    y...1163  OBJ.....      1.000000   UC..1163  -1965.000000
    y...1164  OBJ.....      1.000000   UC..1164  -1965.000000
    y...1165  OBJ.....      1.000000   UC..1165  -1965.000000
    y...1166  OBJ.....      1.000000   UC..1166  -1965.000000
    y...1167  OBJ.....      1.000000   UC..1167  -1965.000000
    y...1168  OBJ.....      1.000000   UC..1168  -1965.000000
    y...1169  OBJ.....      1.000000   UC..1169  -1965.000000
    y...1170  OBJ.....      1.000000   UC..1170  -1965.000000
    y...1171  OBJ.....      1.000000   UC..1171  -1965.000000
    y...1172  OBJ.....      1.000000   UC..1172  -1965.000000
    y...1173  OBJ.....      1.000000   UC..1173  -1965.000000
    y...1174  OBJ.....      1.000000   UC..1174  -1965.000000
    y...1175  OBJ.....      1.000000   UC..1175  -1965.000000
    y...1176  OBJ.....      1.000000   UC..1176  -1965.000000
    y...1177  OBJ.....      1.000000   UC..1177  -1965.000000
    y...1178  OBJ.....      1.000000   UC..1178  -1965.000000
    y...1179  OBJ.....      1.000000   UC..1179  -1965.000000
    y...1180  OBJ.....      1.000000   UC..1180  -1965.000000
    y...1181  OBJ.....      1.000000   UC..1181  -1965.000000
    y...1182  OBJ.....      1.000000   UC..1182  -1965.000000
    y...1183  OBJ.....      1.000000   UC..1183  -1965.000000
    y...1184  OBJ.....      1.000000   UC..1184  -1965.000000
    y...1185  OBJ.....      1.000000   UC..1185  -1965.000000
    y...1186  OBJ.....      1.000000   UC..1186  -1965.000000
    y...1187  OBJ.....      1.000000   UC..1187  -1965.000000
    y...1188  OBJ.....      1.000000   UC..1188  -1965.000000
    y...1189  OBJ.....      1.000000   UC..1189  -1965.000000
    y...1190  OBJ.....      1.000000   UC..1190  -1965.000000
    y...1191  OBJ.....      1.000000   UC..1191  -1965.000000
    y...1192  OBJ.....      1.000000   UC..1192  -1965.000000
    y...1193  OBJ.....      1.000000   UC..1193  -1965.000000
    y...1194  OBJ.....      1.000000   UC..1194  -1965.000000
    y...1195  OBJ.....      1.000000   UC..1195  -1965.000000
    y...1196  OBJ.....      1.000000   UC..1196  -1965.000000
    y...1197  OBJ.....      1.000000   UC..1197  -1965.000000
    y...1198  OBJ.....      1.000000   UC..1198  -1965.000000
    y...1199  OBJ.....      1.000000   UC..1199  -1965.000000
    y...1200  OBJ.....      1.000000   UC..1200  -1965.000000
    y...1201  OBJ.....      1.000000   UC..1201  -1965.000000
    y...1202  OBJ.....      1.000000   UC..1202  -1965.000000
    y...1203  OBJ.....      1.000000   UC..1203  -1965.000000
    y...1204  OBJ.....      1.000000   UC..1204  -1965.000000
    y...1205  OBJ.....      1.000000   UC..1205  -1965.000000
    y...1206  OBJ.....      1.000000   UC..1206  -1965.000000
    y...1207  OBJ.....      1.000000   UC..1207  -1965.000000
    y...1208  OBJ.....      1.000000   UC..1208  -1965.000000
    y...1209  OBJ.....      1.000000   UC..1209  -1965.000000
    y...1210  OBJ.....      1.000000   UC..1210  -1965.000000
    y...1211  OBJ.....      1.000000   UC..1211  -1965.000000
    y...1212  OBJ.....      1.000000   UC..1212  -1965.000000
    y...1213  OBJ.....      1.000000   UC..1213  -1965.000000
    y...1214  OBJ.....      1.000000   UC..1214  -1965.000000
    y...1215  OBJ.....      1.000000   UC..1215  -1965.000000
    y...1216  OBJ.....      1.000000   UC..1216  -1965.000000
    y...1217  OBJ.....      1.000000   UC..1217  -1965.000000
    y...1218  OBJ.....      1.000000   UC..1218  -1965.000000
    y...1219  OBJ.....      1.000000   UC..1219  -1965.000000
    y...1220  OBJ.....      1.000000   UC..1220  -1965.000000
    y...1221  OBJ.....      1.000000   UC..1221  -1965.000000
    y...1222  OBJ.....      1.000000   UC..1222  -1965.000000
    y...1223  OBJ.....      1.000000   UC..1223  -1965.000000
    y...1224  OBJ.....      1.000000   UC..1224  -1965.000000
    y...1225  OBJ.....      1.000000   UC..1225  -1965.000000
    y...1226  OBJ.....      1.000000   UC..1226  -1965.000000
    y...1227  OBJ.....      1.000000   UC..1227  -1965.000000
    y...1228  OBJ.....      1.000000   UC..1228  -1965.000000
    y...1229  OBJ.....      1.000000   UC..1229  -1965.000000
    y...1230  OBJ.....      1.000000   UC..1230  -1965.000000
    y...1231  OBJ.....      1.000000   UC..1231  -1965.000000
    y...1232  OBJ.....      1.000000   UC..1232  -1965.000000
    y...1233  OBJ.....      1.000000   UC..1233  -1965.000000
    y...1234  OBJ.....      1.000000   UC..1234  -1965.000000
    y...1235  OBJ.....      1.000000   UC..1235  -1965.000000
    y...1236  OBJ.....      1.000000   UC..1236  -1965.000000
    y...1237  OBJ.....      1.000000   UC..1237  -1965.000000
    y...1238  OBJ.....      1.000000   UC..1238  -1965.000000
    y...1239  OBJ.....      1.000000   UC..1239  -1965.000000
    y...1240  OBJ.....      1.000000   UC..1240  -1965.000000
    y...1241  OBJ.....      1.000000   UC..1241  -1965.000000
    y...1242  OBJ.....      1.000000   UC..1242  -1965.000000
    y...1243  OBJ.....      1.000000   UC..1243  -1965.000000
    y...1244  OBJ.....      1.000000   UC..1244  -1965.000000
    y...1245  OBJ.....      1.000000   UC..1245  -1965.000000
    y...1246  OBJ.....      1.000000   UC..1246  -1965.000000
    y...1247  OBJ.....      1.000000   UC..1247  -1965.000000
    y...1248  OBJ.....      1.000000   UC..1248  -1965.000000
    y...1249  OBJ.....      1.000000   UC..1249  -1965.000000
    y...1250  OBJ.....      1.000000   UC..1250  -1965.000000
    y...1251  OBJ.....      1.000000   UC..1251  -1965.000000
    y...1252  OBJ.....      1.000000   UC..1252  -1965.000000
    y...1253  OBJ.....      1.000000   UC..1253  -1965.000000
    y...1254  OBJ.....      1.000000   UC..1254  -1965.000000
    y...1255  OBJ.....      1.000000   UC..1255  -1965.000000
    y...1256  OBJ.....      1.000000   UC..1256  -1965.000000
    y...1257  OBJ.....      1.000000   UC..1257  -1965.000000
    y...1258  OBJ.....      1.000000   UC..1258  -1965.000000
    y...1259  OBJ.....      1.000000   UC..1259  -1965.000000
    y...1260  OBJ.....      1.000000   UC..1260  -1965.000000
    y...1261  OBJ.....      1.000000   UC..1261  -1965.000000
    y...1262  OBJ.....      1.000000   UC..1262  -1965.000000
    y...1263  OBJ.....      1.000000   UC..1263  -1965.000000
    y...1264  OBJ.....      1.000000   UC..1264  -1965.000000
    y...1265  OBJ.....      1.000000   UC..1265  -1965.000000
    y...1266  OBJ.....      1.000000   UC..1266  -1965.000000
    y...1267  OBJ.....      1.000000   UC..1267  -1965.000000
    y...1268  OBJ.....      1.000000   UC..1268  -1965.000000
    y...1269  OBJ.....      1.000000   UC..1269  -1965.000000
    y...1270  OBJ.....      1.000000   UC..1270  -1965.000000
    y...1271  OBJ.....      1.000000   UC..1271  -1965.000000
    y...1272  OBJ.....      1.000000   UC..1272  -1965.000000
    y...1273  OBJ.....      1.000000   UC..1273  -1965.000000
    y...1274  OBJ.....      1.000000   UC..1274  -1965.000000
    y...1275  OBJ.....      1.000000   UC..1275  -1965.000000
    y...1276  OBJ.....      1.000000   UC..1276  -1965.000000
    y...1277  OBJ.....      1.000000   UC..1277  -1965.000000
    y...1278  OBJ.....      1.000000   UC..1278  -1965.000000
    y...1279  OBJ.....      1.000000   UC..1279  -1965.000000
    y...1280  OBJ.....      1.000000   UC..1280  -1965.000000
    y...1281  OBJ.....      1.000000   UC..1281  -1965.000000
    y...1282  OBJ.....      1.000000   UC..1282  -1965.000000
    y...1283  OBJ.....      1.000000   UC..1283  -1965.000000
    y...1284  OBJ.....      1.000000   UC..1284  -1965.000000
    y...1285  OBJ.....      1.000000   UC..1285  -1965.000000
    y...1286  OBJ.....      1.000000   UC..1286  -1965.000000
    y...1287  OBJ.....      1.000000   UC..1287  -1965.000000
    y...1288  OBJ.....      1.000000   UC..1288  -1965.000000
    y...1289  OBJ.....      1.000000   UC..1289  -1965.000000
    y...1290  OBJ.....      1.000000   UC..1290  -1965.000000
    y...1291  OBJ.....      1.000000   UC..1291  -1965.000000
    y...1292  OBJ.....      1.000000   UC..1292  -1965.000000
    y...1293  OBJ.....      1.000000   UC..1293  -1965.000000
    y...1294  OBJ.....      1.000000   UC..1294  -1965.000000
    y...1295  OBJ.....      1.000000   UC..1295  -1965.000000
    y...1296  OBJ.....      1.000000   UC..1296  -1965.000000
    y...1297  OBJ.....      1.000000   UC..1297  -1965.000000
    y...1298  OBJ.....      1.000000   UC..1298  -1965.000000
    y...1299  OBJ.....      1.000000   UC..1299  -1965.000000
    y...1300  OBJ.....      1.000000   UC..1300  -1965.000000
    y...1301  OBJ.....      1.000000   UC..1301  -1965.000000
    y...1302  OBJ.....      1.000000   UC..1302  -1965.000000
    y...1303  OBJ.....      1.000000   UC..1303  -1965.000000
    y...1304  OBJ.....      1.000000   UC..1304  -1965.000000
    y...1305  OBJ.....      1.000000   UC..1305  -1965.000000
    y...1306  OBJ.....      1.000000   UC..1306  -1965.000000
    y...1307  OBJ.....      1.000000   UC..1307  -1965.000000
    y...1308  OBJ.....      1.000000   UC..1308  -1965.000000
    y...1309  OBJ.....      1.000000   UC..1309  -1965.000000
    y...1310  OBJ.....      1.000000   UC..1310  -1965.000000
    y...1311  OBJ.....      1.000000   UC..1311  -1965.000000
    y...1312  OBJ.....      1.000000   UC..1312  -1965.000000
    y...1313  OBJ.....      1.000000   UC..1313  -1965.000000
    y...1314  OBJ.....      1.000000   UC..1314  -1965.000000
    y...1315  OBJ.....      1.000000   UC..1315  -1965.000000
    y...1316  OBJ.....      1.000000   UC..1316  -1965.000000
    y...1317  OBJ.....      1.000000   UC..1317  -1965.000000
    y...1318  OBJ.....      1.000000   UC..1318  -1965.000000
    y...1319  OBJ.....      1.000000   UC..1319  -1965.000000
    y...1320  OBJ.....      1.000000   UC..1320  -1965.000000
    y...1321  OBJ.....      1.000000   UC..1321  -1965.000000
    y...1322  OBJ.....      1.000000   UC..1322  -1965.000000
    y...1323  OBJ.....      1.000000   UC..1323  -1965.000000
    y...1324  OBJ.....      1.000000   UC..1324  -1965.000000
    y...1325  OBJ.....      1.000000   UC..1325  -1965.000000
    y...1326  OBJ.....      1.000000   UC..1326  -1965.000000
    y...1327  OBJ.....      1.000000   UC..1327  -1965.000000
    y...1328  OBJ.....      1.000000   UC..1328  -1965.000000
    y...1329  OBJ.....      1.000000   UC..1329  -1965.000000
    y...1330  OBJ.....      1.000000   UC..1330  -1965.000000
    y...1331  OBJ.....      1.000000   UC..1331  -1965.000000
    y...1332  OBJ.....      1.000000   UC..1332  -1965.000000
    y...1333  OBJ.....      1.000000   UC..1333  -1965.000000
    y...1334  OBJ.....      1.000000   UC..1334  -1965.000000
    y...1335  OBJ.....      1.000000   UC..1335  -1965.000000
    y...1336  OBJ.....      1.000000   UC..1336  -1965.000000
    y...1337  OBJ.....      1.000000   UC..1337  -1965.000000
    y...1338  OBJ.....      1.000000   UC..1338  -1965.000000
    y...1339  OBJ.....      1.000000   UC..1339  -1965.000000
    y...1340  OBJ.....      1.000000   UC..1340  -1965.000000
    y...1341  OBJ.....      1.000000   UC..1341  -1965.000000
    y...1342  OBJ.....      1.000000   UC..1342  -1965.000000
    y...1343  OBJ.....      1.000000   UC..1343  -1965.000000
    y...1344  OBJ.....      1.000000   UC..1344  -1965.000000
    y...1345  OBJ.....      1.000000   UC..1345  -1965.000000
    y...1346  OBJ.....      1.000000   UC..1346  -1965.000000
    y...1347  OBJ.....      1.000000   UC..1347  -1965.000000
    y...1348  OBJ.....      1.000000   UC..1348  -1965.000000
    y...1349  OBJ.....      1.000000   UC..1349  -1965.000000
    y...1350  OBJ.....      1.000000   UC..1350  -1965.000000
    y...1351  OBJ.....      1.000000   UC..1351  -1965.000000
    y...1352  OBJ.....      1.000000   UC..1352  -1965.000000
    y...1353  OBJ.....      1.000000   UC..1353  -1965.000000
    y...1354  OBJ.....      1.000000   UC..1354  -1965.000000
    y...1355  OBJ.....      1.000000   UC..1355  -1965.000000
    y...1356  OBJ.....      1.000000   UC..1356  -1965.000000
    y...1357  OBJ.....      1.000000   UC..1357  -1965.000000
    y...1358  OBJ.....      1.000000   UC..1358  -1965.000000
    y...1359  OBJ.....      1.000000   UC..1359  -1965.000000
    y...1360  OBJ.....      1.000000   UC..1360  -1965.000000
    y...1361  OBJ.....      1.000000   UC..1361  -1965.000000
    y...1362  OBJ.....      1.000000   UC..1362  -1965.000000
    y...1363  OBJ.....      1.000000   UC..1363  -1965.000000
    y...1364  OBJ.....      1.000000   UC..1364  -1965.000000
    y...1365  OBJ.....      1.000000   UC..1365  -1965.000000
    y...1366  OBJ.....      1.000000   UC..1366  -1965.000000
    y...1367  OBJ.....      1.000000   UC..1367  -1965.000000
    y...1368  OBJ.....      1.000000   UC..1368  -1965.000000
    y...1369  OBJ.....      1.000000   UC..1369  -1965.000000
    y...1370  OBJ.....      1.000000   UC..1370  -1965.000000
    y...1371  OBJ.....      1.000000   UC..1371  -1965.000000
    y...1372  OBJ.....      1.000000   UC..1372  -1965.000000
    y...1373  OBJ.....      1.000000   UC..1373  -1965.000000
    y...1374  OBJ.....      1.000000   UC..1374  -1965.000000
    y...1375  OBJ.....      1.000000   UC..1375  -1965.000000
    y...1376  OBJ.....      1.000000   UC..1376  -1965.000000
    y...1377  OBJ.....      1.000000   UC..1377  -1965.000000
    y...1378  OBJ.....      1.000000   UC..1378  -1965.000000
    y...1379  OBJ.....      1.000000   UC..1379  -1965.000000
    y...1380  OBJ.....      1.000000   UC..1380  -1965.000000
    y...1381  OBJ.....      1.000000   UC..1381  -1965.000000
    y...1382  OBJ.....      1.000000   UC..1382  -1965.000000
    y...1383  OBJ.....      1.000000   UC..1383  -1965.000000
    y...1384  OBJ.....      1.000000   UC..1384  -1965.000000
    y...1385  OBJ.....      1.000000   UC..1385  -1965.000000
    y...1386  OBJ.....      1.000000   UC..1386  -1965.000000
    y...1387  OBJ.....      1.000000   UC..1387  -1965.000000
    y...1388  OBJ.....      1.000000   UC..1388  -1965.000000
    y...1389  OBJ.....      1.000000   UC..1389  -1965.000000
    y...1390  OBJ.....      1.000000   UC..1390  -1965.000000
    y...1391  OBJ.....      1.000000   UC..1391  -1965.000000
    y...1392  OBJ.....      1.000000   UC..1392  -1965.000000
    y...1393  OBJ.....      1.000000   UC..1393  -1965.000000
    y...1394  OBJ.....      1.000000   UC..1394  -1965.000000
    y...1395  OBJ.....      1.000000   UC..1395  -1965.000000
    y...1396  OBJ.....      1.000000   UC..1396  -1965.000000
    y...1397  OBJ.....      1.000000   UC..1397  -1965.000000
    y...1398  OBJ.....      1.000000   UC..1398  -1965.000000
    y...1399  OBJ.....      1.000000   UC..1399  -1965.000000
    y...1400  OBJ.....      1.000000   UC..1400  -1965.000000
    y...1401  OBJ.....      1.000000   UC..1401  -1965.000000
    y...1402  OBJ.....      1.000000   UC..1402  -1965.000000
    y...1403  OBJ.....      1.000000   UC..1403  -1965.000000
    y...1404  OBJ.....      1.000000   UC..1404  -1965.000000
    y...1405  OBJ.....      1.000000   UC..1405  -1965.000000
    y...1406  OBJ.....      1.000000   UC..1406  -1965.000000
    y...1407  OBJ.....      1.000000   UC..1407  -1965.000000
    y...1408  OBJ.....      1.000000   UC..1408  -1965.000000
    y...1409  OBJ.....      1.000000   UC..1409  -1965.000000
    y...1410  OBJ.....      1.000000   UC..1410  -1965.000000
    y...1411  OBJ.....      1.000000   UC..1411  -1965.000000
    y...1412  OBJ.....      1.000000   UC..1412  -1965.000000
    y...1413  OBJ.....      1.000000   UC..1413  -1965.000000
    y...1414  OBJ.....      1.000000   UC..1414  -1965.000000
    y...1415  OBJ.....      1.000000   UC..1415  -1965.000000
    y...1416  OBJ.....      1.000000   UC..1416  -1965.000000
    y...1417  OBJ.....      1.000000   UC..1417  -1965.000000
    y...1418  OBJ.....      1.000000   UC..1418  -1965.000000
    y...1419  OBJ.....      1.000000   UC..1419  -1965.000000
    y...1420  OBJ.....      1.000000   UC..1420  -1965.000000
    y...1421  OBJ.....      1.000000   UC..1421  -1965.000000
    y...1422  OBJ.....      1.000000   UC..1422  -1965.000000
    y...1423  OBJ.....      1.000000   UC..1423  -1965.000000
    y...1424  OBJ.....      1.000000   UC..1424  -1965.000000
    y...1425  OBJ.....      1.000000   UC..1425  -1965.000000
    y...1426  OBJ.....      1.000000   UC..1426  -1965.000000
    y...1427  OBJ.....      1.000000   UC..1427  -1965.000000
    y...1428  OBJ.....      1.000000   UC..1428  -1965.000000
    y...1429  OBJ.....      1.000000   UC..1429  -1965.000000
    y...1430  OBJ.....      1.000000   UC..1430  -1965.000000
    y...1431  OBJ.....      1.000000   UC..1431  -1965.000000
    y...1432  OBJ.....      1.000000   UC..1432  -1965.000000
    y...1433  OBJ.....      1.000000   UC..1433  -1965.000000
    y...1434  OBJ.....      1.000000   UC..1434  -1965.000000
    y...1435  OBJ.....      1.000000   UC..1435  -1965.000000
    y...1436  OBJ.....      1.000000   UC..1436  -1965.000000
    y...1437  OBJ.....      1.000000   UC..1437  -1965.000000
    y...1438  OBJ.....      1.000000   UC..1438  -1965.000000
    y...1439  OBJ.....      1.000000   UC..1439  -1965.000000
    y...1440  OBJ.....      1.000000   UC..1440  -1965.000000
    y...1441  OBJ.....      1.000000   UC..1441  -1965.000000
    y...1442  OBJ.....      1.000000   UC..1442  -1965.000000
    y...1443  OBJ.....      1.000000   UC..1443  -1965.000000
    y...1444  OBJ.....      1.000000   UC..1444  -1965.000000
    y...1445  OBJ.....      1.000000   UC..1445  -1965.000000
    y...1446  OBJ.....      1.000000   UC..1446  -1965.000000
    y...1447  OBJ.....      1.000000   UC..1447  -1965.000000
    y...1448  OBJ.....      1.000000   UC..1448  -1965.000000
    y...1449  OBJ.....      1.000000   UC..1449  -1965.000000
    y...1450  OBJ.....      1.000000   UC..1450  -1965.000000
    y...1451  OBJ.....      1.000000   UC..1451  -1965.000000
    y...1452  OBJ.....      1.000000   UC..1452  -1965.000000
    y...1453  OBJ.....      1.000000   UC..1453  -1965.000000
    y...1454  OBJ.....      1.000000   UC..1454  -1965.000000
    y...1455  OBJ.....      1.000000   UC..1455  -1965.000000
    y...1456  OBJ.....      1.000000   UC..1456  -1965.000000
    y...1457  OBJ.....      1.000000   UC..1457  -1965.000000
    y...1458  OBJ.....      1.000000   UC..1458  -1965.000000
    y...1459  OBJ.....      1.000000   UC..1459  -1965.000000
    y...1460  OBJ.....      1.000000   UC..1460  -1965.000000
    y...1461  OBJ.....      1.000000   UC..1461  -1965.000000
    y...1462  OBJ.....      1.000000   UC..1462  -1965.000000
    y...1463  OBJ.....      1.000000   UC..1463  -1965.000000
    y...1464  OBJ.....      1.000000   UC..1464  -1965.000000
    y...1465  OBJ.....      1.000000   UC..1465  -1965.000000
    y...1466  OBJ.....      1.000000   UC..1466  -1965.000000
    y...1467  OBJ.....      1.000000   UC..1467  -1965.000000
    y...1468  OBJ.....      1.000000   UC..1468  -1965.000000
    y...1469  OBJ.....      1.000000   UC..1469  -1965.000000
    y...1470  OBJ.....      1.000000   UC..1470  -1965.000000
    y...1471  OBJ.....      1.000000   UC..1471  -1965.000000
    y...1472  OBJ.....      1.000000   UC..1472  -1965.000000
    y...1473  OBJ.....      1.000000   UC..1473  -1965.000000
    y...1474  OBJ.....      1.000000   UC..1474  -1965.000000
    y...1475  OBJ.....      1.000000   UC..1475  -1965.000000
    y...1476  OBJ.....      1.000000   UC..1476  -1965.000000
    y...1477  OBJ.....      1.000000   UC..1477  -1965.000000
    y...1478  OBJ.....      1.000000   UC..1478  -1965.000000
    y...1479  OBJ.....      1.000000   UC..1479  -1965.000000
    y...1480  OBJ.....      1.000000   UC..1480  -1965.000000
    y...1481  OBJ.....      1.000000   UC..1481  -1965.000000
    y...1482  OBJ.....      1.000000   UC..1482  -1965.000000
    y...1483  OBJ.....      1.000000   UC..1483  -1965.000000
    y...1484  OBJ.....      1.000000   UC..1484  -1965.000000
    y...1485  OBJ.....      1.000000   UC..1485  -1965.000000
    y...1486  OBJ.....      1.000000   UC..1486  -1965.000000
    y...1487  OBJ.....      1.000000   UC..1487  -1965.000000
    y...1488  OBJ.....      1.000000   UC..1488  -1965.000000
    y...1489  OBJ.....      1.000000   UC..1489  -1965.000000
    y...1490  OBJ.....      1.000000   UC..1490  -1965.000000
    y...1491  OBJ.....      1.000000   UC..1491  -1965.000000
    y...1492  OBJ.....      1.000000   UC..1492  -1965.000000
    y...1493  OBJ.....      1.000000   UC..1493  -1965.000000
    y...1494  OBJ.....      1.000000   UC..1494  -1965.000000
    y...1495  OBJ.....      1.000000   UC..1495  -1965.000000
    y...1496  OBJ.....      1.000000   UC..1496  -1965.000000
    y...1497  OBJ.....      1.000000   UC..1497  -1965.000000
    y...1498  OBJ.....      1.000000   UC..1498  -1965.000000
    y...1499  OBJ.....      1.000000   UC..1499  -1965.000000
    y...1500  OBJ.....      1.000000   UC..1500  -1965.000000
    y...1501  OBJ.....      1.000000   UC..1501  -1965.000000
    y...1502  OBJ.....      1.000000   UC..1502  -1965.000000
    y...1503  OBJ.....      1.000000   UC..1503  -1965.000000
    y...1504  OBJ.....      1.000000   UC..1504  -1965.000000
    y...1505  OBJ.....      1.000000   UC..1505  -1965.000000
    y...1506  OBJ.....      1.000000   UC..1506  -1965.000000
    y...1507  OBJ.....      1.000000   UC..1507  -1965.000000
    y...1508  OBJ.....      1.000000   UC..1508  -1965.000000
    y...1509  OBJ.....      1.000000   UC..1509  -1965.000000
    y...1510  OBJ.....      1.000000   UC..1510  -1965.000000
    y...1511  OBJ.....      1.000000   UC..1511  -1965.000000
    y...1512  OBJ.....      1.000000   UC..1512  -1965.000000
    y...1513  OBJ.....      1.000000   UC..1513  -1965.000000
    y...1514  OBJ.....      1.000000   UC..1514  -1965.000000
    y...1515  OBJ.....      1.000000   UC..1515  -1965.000000
    y...1516  OBJ.....      1.000000   UC..1516  -1965.000000
    y...1517  OBJ.....      1.000000   UC..1517  -1965.000000
    y...1518  OBJ.....      1.000000   UC..1518  -1965.000000
    y...1519  OBJ.....      1.000000   UC..1519  -1965.000000
    y...1520  OBJ.....      1.000000   UC..1520  -1965.000000
    y...1521  OBJ.....      1.000000   UC..1521  -1965.000000
    y...1522  OBJ.....      1.000000   UC..1522  -1965.000000
    y...1523  OBJ.....      1.000000   UC..1523  -1965.000000
    y...1524  OBJ.....      1.000000   UC..1524  -1965.000000
    y...1525  OBJ.....      1.000000   UC..1525  -1965.000000
    y...1526  OBJ.....      1.000000   UC..1526  -1965.000000
    y...1527  OBJ.....      1.000000   UC..1527  -1965.000000
    y...1528  OBJ.....      1.000000   UC..1528  -1965.000000
    y...1529  OBJ.....      1.000000   UC..1529  -1965.000000
    y...1530  OBJ.....      1.000000   UC..1530  -1965.000000
    y...1531  OBJ.....      1.000000   UC..1531  -1965.000000
    y...1532  OBJ.....      1.000000   UC..1532  -1965.000000
    y...1533  OBJ.....      1.000000   UC..1533  -1965.000000
    y...1534  OBJ.....      1.000000   UC..1534  -1965.000000
    y...1535  OBJ.....      1.000000   UC..1535  -1965.000000
    y...1536  OBJ.....      1.000000   UC..1536  -1965.000000
    y...1537  OBJ.....      1.000000   UC..1537  -1965.000000
    y...1538  OBJ.....      1.000000   UC..1538  -1965.000000
    y...1539  OBJ.....      1.000000   UC..1539  -1965.000000
    y...1540  OBJ.....      1.000000   UC..1540  -1965.000000
    y...1541  OBJ.....      1.000000   UC..1541  -1965.000000
    y...1542  OBJ.....      1.000000   UC..1542  -1965.000000
    y...1543  OBJ.....      1.000000   UC..1543  -1965.000000
    y...1544  OBJ.....      1.000000   UC..1544  -1965.000000
    y...1545  OBJ.....      1.000000   UC..1545  -1965.000000
    y...1546  OBJ.....      1.000000   UC..1546  -1965.000000
    y...1547  OBJ.....      1.000000   UC..1547  -1965.000000
    y...1548  OBJ.....      1.000000   UC..1548  -1965.000000
    y...1549  OBJ.....      1.000000   UC..1549  -1965.000000
    y...1550  OBJ.....      1.000000   UC..1550  -1965.000000
    y...1551  OBJ.....      1.000000   UC..1551  -1965.000000
    y...1552  OBJ.....      1.000000   UC..1552  -1965.000000
    y...1553  OBJ.....      1.000000   UC..1553  -1965.000000
    y...1554  OBJ.....      1.000000   UC..1554  -1965.000000
    y...1555  OBJ.....      1.000000   UC..1555  -1965.000000
    y...1556  OBJ.....      1.000000   UC..1556  -1965.000000
    y...1557  OBJ.....      1.000000   UC..1557  -1965.000000
    y...1558  OBJ.....      1.000000   UC..1558  -1965.000000
    y...1559  OBJ.....      1.000000   UC..1559  -1965.000000
    y...1560  OBJ.....      1.000000   UC..1560  -1965.000000
    y...1561  OBJ.....      1.000000   UC..1561  -1965.000000
    y...1562  OBJ.....      1.000000   UC..1562  -1965.000000
    y...1563  OBJ.....      1.000000   UC..1563  -1965.000000
    y...1564  OBJ.....      1.000000   UC..1564  -1965.000000
    y...1565  OBJ.....      1.000000   UC..1565  -1965.000000
    y...1566  OBJ.....      1.000000   UC..1566  -1965.000000
    y...1567  OBJ.....      1.000000   UC..1567  -1965.000000
    y...1568  OBJ.....      1.000000   UC..1568  -1965.000000
    y...1569  OBJ.....      1.000000   UC..1569  -1965.000000
    y...1570  OBJ.....      1.000000   UC..1570  -1965.000000
    y...1571  OBJ.....      1.000000   UC..1571  -1965.000000
    y...1572  OBJ.....      1.000000   UC..1572  -1965.000000
    y...1573  OBJ.....      1.000000   UC..1573  -1965.000000
    y...1574  OBJ.....      1.000000   UC..1574  -1965.000000
    y...1575  OBJ.....      1.000000   UC..1575  -1965.000000
    y...1576  OBJ.....      1.000000   UC..1576  -1965.000000
    y...1577  OBJ.....      1.000000   UC..1577  -1965.000000
    y...1578  OBJ.....      1.000000   UC..1578  -1965.000000
    y...1579  OBJ.....      1.000000   UC..1579  -1965.000000
    y...1580  OBJ.....      1.000000   UC..1580  -1965.000000
    y...1581  OBJ.....      1.000000   UC..1581  -1965.000000
    y...1582  OBJ.....      1.000000   UC..1582  -1965.000000
    y...1583  OBJ.....      1.000000   UC..1583  -1965.000000
    y...1584  OBJ.....      1.000000   UC..1584  -1965.000000
    y...1585  OBJ.....      1.000000   UC..1585  -1965.000000
    y...1586  OBJ.....      1.000000   UC..1586  -1965.000000
    y...1587  OBJ.....      1.000000   UC..1587  -1965.000000
    y...1588  OBJ.....      1.000000   UC..1588  -1965.000000
    y...1589  OBJ.....      1.000000   UC..1589  -1965.000000
    y...1590  OBJ.....      1.000000   UC..1590  -1965.000000
    y...1591  OBJ.....      1.000000   UC..1591  -1965.000000
    y...1592  OBJ.....      1.000000   UC..1592  -1965.000000
    y...1593  OBJ.....      1.000000   UC..1593  -1965.000000
    y...1594  OBJ.....      1.000000   UC..1594  -1965.000000
    y...1595  OBJ.....      1.000000   UC..1595  -1965.000000
    y...1596  OBJ.....      1.000000   UC..1596  -1965.000000
    y...1597  OBJ.....      1.000000   UC..1597  -1965.000000
    y...1598  OBJ.....      1.000000   UC..1598  -1965.000000
    y...1599  OBJ.....      1.000000   UC..1599  -1965.000000
    y...1600  OBJ.....      1.000000   UC..1600  -1965.000000
    y...1601  OBJ.....      1.000000   UC..1601  -1965.000000
    y...1602  OBJ.....      1.000000   UC..1602  -1965.000000
    y...1603  OBJ.....      1.000000   UC..1603  -1965.000000
    y...1604  OBJ.....      1.000000   UC..1604  -1965.000000
    y...1605  OBJ.....      1.000000   UC..1605  -1965.000000
    y...1606  OBJ.....      1.000000   UC..1606  -1965.000000
    y...1607  OBJ.....      1.000000   UC..1607  -1965.000000
    y...1608  OBJ.....      1.000000   UC..1608  -1965.000000
    y...1609  OBJ.....      1.000000   UC..1609  -1965.000000
    y...1610  OBJ.....      1.000000   UC..1610  -1965.000000
    y...1611  OBJ.....      1.000000   UC..1611  -1965.000000
    y...1612  OBJ.....      1.000000   UC..1612  -1965.000000
    y...1613  OBJ.....      1.000000   UC..1613  -1965.000000
    y...1614  OBJ.....      1.000000   UC..1614  -1965.000000
    y...1615  OBJ.....      1.000000   UC..1615  -1965.000000
    y...1616  OBJ.....      1.000000   UC..1616  -1965.000000
    y...1617  OBJ.....      1.000000   UC..1617  -1965.000000
    y...1618  OBJ.....      1.000000   UC..1618  -1965.000000
    y...1619  OBJ.....      1.000000   UC..1619  -1965.000000
    y...1620  OBJ.....      1.000000   UC..1620  -1965.000000
    y...1621  OBJ.....      1.000000   UC..1621  -1965.000000
    y...1622  OBJ.....      1.000000   UC..1622  -1965.000000
    y...1623  OBJ.....      1.000000   UC..1623  -1965.000000
    y...1624  OBJ.....      1.000000   UC..1624  -1965.000000
    y...1625  OBJ.....      1.000000   UC..1625  -1965.000000
    y...1626  OBJ.....      1.000000   UC..1626  -1965.000000
    y...1627  OBJ.....      1.000000   UC..1627  -1965.000000
    y...1628  OBJ.....      1.000000   UC..1628  -1965.000000
    y...1629  OBJ.....      1.000000   UC..1629  -1965.000000
    y...1630  OBJ.....      1.000000   UC..1630  -1965.000000
    y...1631  OBJ.....      1.000000   UC..1631  -1965.000000
    y...1632  OBJ.....      1.000000   UC..1632  -1965.000000
    y...1633  OBJ.....      1.000000   UC..1633  -1965.000000
    y...1634  OBJ.....      1.000000   UC..1634  -1965.000000
    y...1635  OBJ.....      1.000000   UC..1635  -1965.000000
    y...1636  OBJ.....      1.000000   UC..1636  -1965.000000
    y...1637  OBJ.....      1.000000   UC..1637  -1965.000000
    y...1638  OBJ.....      1.000000   UC..1638  -1965.000000
    y...1639  OBJ.....      1.000000   UC..1639  -1965.000000
    y...1640  OBJ.....      1.000000   UC..1640  -1965.000000
    y...1641  OBJ.....      1.000000   UC..1641  -1965.000000
    y...1642  OBJ.....      1.000000   UC..1642  -1965.000000
    y...1643  OBJ.....      1.000000   UC..1643  -1965.000000
    y...1644  OBJ.....      1.000000   UC..1644  -1965.000000
    y...1645  OBJ.....      1.000000   UC..1645  -1965.000000
    y...1646  OBJ.....      1.000000   UC..1646  -1965.000000
    y...1647  OBJ.....      1.000000   UC..1647  -1965.000000
    y...1648  OBJ.....      1.000000   UC..1648  -1965.000000
    y...1649  OBJ.....      1.000000   UC..1649  -1965.000000
    y...1650  OBJ.....      1.000000   UC..1650  -1965.000000
    y...1651  OBJ.....      1.000000   UC..1651  -1965.000000
    y...1652  OBJ.....      1.000000   UC..1652  -1965.000000
    y...1653  OBJ.....      1.000000   UC..1653  -1965.000000
    y...1654  OBJ.....      1.000000   UC..1654  -1965.000000
    y...1655  OBJ.....      1.000000   UC..1655  -1965.000000
    y...1656  OBJ.....      1.000000   UC..1656  -1965.000000
    y...1657  OBJ.....      1.000000   UC..1657  -1965.000000
    y...1658  OBJ.....      1.000000   UC..1658  -1965.000000
    y...1659  OBJ.....      1.000000   UC..1659  -1965.000000
    y...1660  OBJ.....      1.000000   UC..1660  -1965.000000
    y...1661  OBJ.....      1.000000   UC..1661  -1965.000000
    y...1662  OBJ.....      1.000000   UC..1662  -1965.000000
    y...1663  OBJ.....      1.000000   UC..1663  -1965.000000
    y...1664  OBJ.....      1.000000   UC..1664  -1965.000000
    y...1665  OBJ.....      1.000000   UC..1665  -1965.000000
    y...1666  OBJ.....      1.000000   UC..1666  -1965.000000
    y...1667  OBJ.....      1.000000   UC..1667  -1965.000000
    y...1668  OBJ.....      1.000000   UC..1668  -1965.000000
    y...1669  OBJ.....      1.000000   UC..1669  -1965.000000
    y...1670  OBJ.....      1.000000   UC..1670  -1965.000000
    y...1671  OBJ.....      1.000000   UC..1671  -1965.000000
    y...1672  OBJ.....      1.000000   UC..1672  -1965.000000
    y...1673  OBJ.....      1.000000   UC..1673  -1965.000000
    y...1674  OBJ.....      1.000000   UC..1674  -1965.000000
    y...1675  OBJ.....      1.000000   UC..1675  -1965.000000
    y...1676  OBJ.....      1.000000   UC..1676  -1965.000000
    y...1677  OBJ.....      1.000000   UC..1677  -1965.000000
    y...1678  OBJ.....      1.000000   UC..1678  -1965.000000
    y...1679  OBJ.....      1.000000   UC..1679  -1965.000000
    y...1680  OBJ.....      1.000000   UC..1680  -1965.000000
    y...1681  OBJ.....      1.000000   UC..1681  -1965.000000
    y...1682  OBJ.....      1.000000   UC..1682  -1965.000000
    y...1683  OBJ.....      1.000000   UC..1683  -1965.000000
    y...1684  OBJ.....      1.000000   UC..1684  -1965.000000
    y...1685  OBJ.....      1.000000   UC..1685  -1965.000000
    y...1686  OBJ.....      1.000000   UC..1686  -1965.000000
    y...1687  OBJ.....      1.000000   UC..1687  -1965.000000
    y...1688  OBJ.....      1.000000   UC..1688  -1965.000000
    y...1689  OBJ.....      1.000000   UC..1689  -1965.000000
    y...1690  OBJ.....      1.000000   UC..1690  -1965.000000
    y...1691  OBJ.....      1.000000   UC..1691  -1965.000000
    y...1692  OBJ.....      1.000000   UC..1692  -1965.000000
    y...1693  OBJ.....      1.000000   UC..1693  -1965.000000
    y...1694  OBJ.....      1.000000   UC..1694  -1965.000000
    y...1695  OBJ.....      1.000000   UC..1695  -1965.000000
    y...1696  OBJ.....      1.000000   UC..1696  -1965.000000
    y...1697  OBJ.....      1.000000   UC..1697  -1965.000000
    y...1698  OBJ.....      1.000000   UC..1698  -1965.000000
    y...1699  OBJ.....      1.000000   UC..1699  -1965.000000
    y...1700  OBJ.....      1.000000   UC..1700  -1965.000000
    y...1701  OBJ.....      1.000000   UC..1701  -1965.000000
    y...1702  OBJ.....      2.000000   UC..1702  -1965.000000
    y...1703  OBJ.....      1.000000   UC..1703  -1965.000000
    y...1704  OBJ.....      1.000000   UC..1704  -1965.000000
    y...1705  OBJ.....      1.000000   UC..1705  -1965.000000
    y...1706  OBJ.....      1.000000   UC..1706  -1965.000000
    y...1707  OBJ.....      1.000000   UC..1707  -1965.000000
    y...1708  OBJ.....      1.000000   UC..1708  -1965.000000
    y...1709  OBJ.....      1.000000   UC..1709  -1965.000000
    y...1710  OBJ.....      1.000000   UC..1710  -1965.000000
    y...1711  OBJ.....      1.000000   UC..1711  -1965.000000
    y...1712  OBJ.....      1.000000   UC..1712  -1965.000000
    y...1713  OBJ.....      1.000000   UC..1713  -1965.000000
    y...1714  OBJ.....      1.000000   UC..1714  -1965.000000
    y...1715  OBJ.....      1.000000   UC..1715  -1965.000000
    y...1716  OBJ.....      1.000000   UC..1716  -1965.000000
    y...1717  OBJ.....      1.000000   UC..1717  -1965.000000
    y...1718  OBJ.....      1.000000   UC..1718  -1965.000000
    y...1719  OBJ.....      1.000000   UC..1719  -1965.000000
    y...1720  OBJ.....      1.000000   UC..1720  -1965.000000
    y...1721  OBJ.....      1.000000   UC..1721  -1965.000000
    y...1722  OBJ.....      1.000000   UC..1722  -1965.000000
    y...1723  OBJ.....      1.000000   UC..1723  -1965.000000
    y...1724  OBJ.....      1.000000   UC..1724  -1965.000000
    y...1725  OBJ.....      1.000000   UC..1725  -1965.000000
    y...1726  OBJ.....      1.000000   UC..1726  -1965.000000
    y...1727  OBJ.....      1.000000   UC..1727  -1965.000000
    y...1728  OBJ.....      1.000000   UC..1728  -1965.000000
    y...1729  OBJ.....      1.000000   UC..1729  -1965.000000
    y...1730  OBJ.....      1.000000   UC..1730  -1965.000000
    y...1731  OBJ.....      1.000000   UC..1731  -1965.000000
    y...1732  OBJ.....      1.000000   UC..1732  -1965.000000
    y...1733  OBJ.....      1.000000   UC..1733  -1965.000000
    y...1734  OBJ.....      1.000000   UC..1734  -1965.000000
    y...1735  OBJ.....      1.000000   UC..1735  -1965.000000
    y...1736  OBJ.....      1.000000   UC..1736  -1965.000000
    y...1737  OBJ.....      1.000000   UC..1737  -1965.000000
    y...1738  OBJ.....      1.000000   UC..1738  -1965.000000
    y...1739  OBJ.....      1.000000   UC..1739  -1965.000000
    y...1740  OBJ.....      1.000000   UC..1740  -1965.000000
    y...1741  OBJ.....      1.000000   UC..1741  -1965.000000
    y...1742  OBJ.....      1.000000   UC..1742  -1965.000000
    y...1743  OBJ.....      1.000000   UC..1743  -1965.000000
    y...1744  OBJ.....      1.000000   UC..1744  -1965.000000
    y...1745  OBJ.....      1.000000   UC..1745  -1965.000000
    y...1746  OBJ.....      1.000000   UC..1746  -1965.000000
    y...1747  OBJ.....      1.000000   UC..1747  -1965.000000
    y...1748  OBJ.....      1.000000   UC..1748  -1965.000000
    y...1749  OBJ.....      1.000000   UC..1749  -1965.000000
    y...1750  OBJ.....      1.000000   UC..1750  -1965.000000
    y...1751  OBJ.....      1.000000   UC..1751  -1965.000000
    y...1752  OBJ.....      1.000000   UC..1752  -1965.000000
    y...1753  OBJ.....      1.000000   UC..1753  -1965.000000
    y...1754  OBJ.....      1.000000   UC..1754  -1965.000000
    y...1755  OBJ.....      1.000000   UC..1755  -1965.000000
    y...1756  OBJ.....      1.000000   UC..1756  -1965.000000
    y...1757  OBJ.....      1.000000   UC..1757  -1965.000000
    y...1758  OBJ.....      1.000000   UC..1758  -1965.000000
    y...1759  OBJ.....      1.000000   UC..1759  -1965.000000
    y...1760  OBJ.....      1.000000   UC..1760  -1965.000000
    y...1761  OBJ.....      1.000000   UC..1761  -1965.000000
    y...1762  OBJ.....      1.000000   UC..1762  -1965.000000
    y...1763  OBJ.....      1.000000   UC..1763  -1965.000000
    y...1764  OBJ.....      1.000000   UC..1764  -1965.000000
    y...1765  OBJ.....      1.000000   UC..1765  -1965.000000
    y...1766  OBJ.....      1.000000   UC..1766  -1965.000000
    y...1767  OBJ.....      1.000000   UC..1767  -1965.000000
    y...1768  OBJ.....      1.000000   UC..1768  -1965.000000
    y...1769  OBJ.....      1.000000   UC..1769  -1965.000000
    y...1770  OBJ.....      1.000000   UC..1770  -1965.000000
    y...1771  OBJ.....      1.000000   UC..1771  -1965.000000
    y...1772  OBJ.....      1.000000   UC..1772  -1965.000000
    y...1773  OBJ.....      1.000000   UC..1773  -1965.000000
    y...1774  OBJ.....      1.000000   UC..1774  -1965.000000
    y...1775  OBJ.....      1.000000   UC..1775  -1965.000000
    y...1776  OBJ.....      1.000000   UC..1776  -1965.000000
    y...1777  OBJ.....      1.000000   UC..1777  -1965.000000
    y...1778  OBJ.....      1.000000   UC..1778  -1965.000000
    y...1779  OBJ.....      1.000000   UC..1779  -1965.000000
    y...1780  OBJ.....      1.000000   UC..1780  -1965.000000
    y...1781  OBJ.....      1.000000   UC..1781  -1965.000000
    y...1782  OBJ.....      1.000000   UC..1782  -1965.000000
    y...1783  OBJ.....      1.000000   UC..1783  -1965.000000
    y...1784  OBJ.....      1.000000   UC..1784  -1965.000000
    y...1785  OBJ.....      1.000000   UC..1785  -1965.000000
    y...1786  OBJ.....      1.000000   UC..1786  -1965.000000
    y...1787  OBJ.....      1.000000   UC..1787  -1965.000000
    y...1788  OBJ.....      1.000000   UC..1788  -1965.000000
    y...1789  OBJ.....      1.000000   UC..1789  -1965.000000
    y...1790  OBJ.....      1.000000   UC..1790  -1965.000000
    y...1791  OBJ.....      1.000000   UC..1791  -1965.000000
    y...1792  OBJ.....      1.000000   UC..1792  -1965.000000
    y...1793  OBJ.....      1.000000   UC..1793  -1965.000000
    y...1794  OBJ.....      1.000000   UC..1794  -1965.000000
    y...1795  OBJ.....      1.000000   UC..1795  -1965.000000
    y...1796  OBJ.....      1.000000   UC..1796  -1965.000000
    y...1797  OBJ.....      1.000000   UC..1797  -1965.000000
    y...1798  OBJ.....      1.000000   UC..1798  -1965.000000
    y...1799  OBJ.....      1.000000   UC..1799  -1965.000000
    y...1800  OBJ.....      1.000000   UC..1800  -1965.000000
    y...1801  OBJ.....      1.000000   UC..1801  -1965.000000
    y...1802  OBJ.....      1.000000   UC..1802  -1965.000000
    y...1803  OBJ.....      1.000000   UC..1803  -1965.000000
    y...1804  OBJ.....      1.000000   UC..1804  -1965.000000
    y...1805  OBJ.....      1.000000   UC..1805  -1965.000000
    y...1806  OBJ.....      1.000000   UC..1806  -1965.000000
    y...1807  OBJ.....      1.000000   UC..1807  -1965.000000
    y...1808  OBJ.....      1.000000   UC..1808  -1965.000000
    y...1809  OBJ.....      1.000000   UC..1809  -1965.000000
    y...1810  OBJ.....      1.000000   UC..1810  -1965.000000
    y...1811  OBJ.....      1.000000   UC..1811  -1965.000000
    y...1812  OBJ.....      1.000000   UC..1812  -1965.000000
    y...1813  OBJ.....      1.000000   UC..1813  -1965.000000
    y...1814  OBJ.....      1.000000   UC..1814  -1965.000000
    y...1815  OBJ.....      1.000000   UC..1815  -1965.000000
    y...1816  OBJ.....      1.000000   UC..1816  -1965.000000
    y...1817  OBJ.....      1.000000   UC..1817  -1965.000000
    y...1818  OBJ.....      1.000000   UC..1818  -1965.000000
    y...1819  OBJ.....      1.000000   UC..1819  -1965.000000
    y...1820  OBJ.....      1.000000   UC..1820  -1965.000000
    y...1821  OBJ.....      1.000000   UC..1821  -1965.000000
    y...1822  OBJ.....      1.000000   UC..1822  -1965.000000
    y...1823  OBJ.....      1.000000   UC..1823  -1965.000000
    y...1824  OBJ.....      1.000000   UC..1824  -1965.000000
    y...1825  OBJ.....      1.000000   UC..1825  -1965.000000
    y...1826  OBJ.....      1.000000   UC..1826  -1965.000000
    y...1827  OBJ.....      1.000000   UC..1827  -1965.000000
    y...1828  OBJ.....      1.000000   UC..1828  -1965.000000
    y...1829  OBJ.....      1.000000   UC..1829  -1965.000000
    y...1830  OBJ.....      1.000000   UC..1830  -1965.000000
    y...1831  OBJ.....      1.000000   UC..1831  -1965.000000
    y...1832  OBJ.....      1.000000   UC..1832  -1965.000000
    y...1833  OBJ.....      1.000000   UC..1833  -1965.000000
    y...1834  OBJ.....      1.000000   UC..1834  -1965.000000
    y...1835  OBJ.....      1.000000   UC..1835  -1965.000000
    y...1836  OBJ.....      1.000000   UC..1836  -1965.000000
    y...1837  OBJ.....      1.000000   UC..1837  -1965.000000
    y...1838  OBJ.....      1.000000   UC..1838  -1965.000000
    y...1839  OBJ.....      1.000000   UC..1839  -1965.000000
    y...1840  OBJ.....      1.000000   UC..1840  -1965.000000
    y...1841  OBJ.....      1.000000   UC..1841  -1965.000000
    y...1842  OBJ.....      1.000000   UC..1842  -1965.000000
    y...1843  OBJ.....      1.000000   UC..1843  -1965.000000
    y...1844  OBJ.....      1.000000   UC..1844  -1965.000000
    y...1845  OBJ.....      1.000000   UC..1845  -1965.000000
    y...1846  OBJ.....      1.000000   UC..1846  -1965.000000
    y...1847  OBJ.....      1.000000   UC..1847  -1965.000000
    y...1848  OBJ.....      1.000000   UC..1848  -1965.000000
    y...1849  OBJ.....      1.000000   UC..1849  -1965.000000
    y...1850  OBJ.....      1.000000   UC..1850  -1965.000000
    y...1851  OBJ.....      1.000000   UC..1851  -1965.000000
    y...1852  OBJ.....      1.000000   UC..1852  -1965.000000
    y...1853  OBJ.....      1.000000   UC..1853  -1965.000000
    y...1854  OBJ.....      1.000000   UC..1854  -1965.000000
    y...1855  OBJ.....      1.000000   UC..1855  -1965.000000
    y...1856  OBJ.....      1.000000   UC..1856  -1965.000000
    y...1857  OBJ.....      1.000000   UC..1857  -1965.000000
    y...1858  OBJ.....      1.000000   UC..1858  -1965.000000
    y...1859  OBJ.....      1.000000   UC..1859  -1965.000000
    y...1860  OBJ.....      1.000000   UC..1860  -1965.000000
    y...1861  OBJ.....      1.000000   UC..1861  -1965.000000
    y...1862  OBJ.....      1.000000   UC..1862  -1965.000000
    y...1863  OBJ.....      1.000000   UC..1863  -1965.000000
    y...1864  OBJ.....      1.000000   UC..1864  -1965.000000
    y...1865  OBJ.....      1.000000   UC..1865  -1965.000000
    y...1866  OBJ.....      1.000000   UC..1866  -1965.000000
    y...1867  OBJ.....      1.000000   UC..1867  -1965.000000
    y...1868  OBJ.....      1.000000   UC..1868  -1965.000000
    y...1869  OBJ.....      1.000000   UC..1869  -1965.000000
    y...1870  OBJ.....      1.000000   UC..1870  -1965.000000
    y...1871  OBJ.....      1.000000   UC..1871  -1965.000000
    y...1872  OBJ.....      1.000000   UC..1872  -1965.000000
    y...1873  OBJ.....      1.000000   UC..1873  -1965.000000
    y...1874  OBJ.....      1.000000   UC..1874  -1965.000000
    y...1875  OBJ.....      1.000000   UC..1875  -1965.000000
    y...1876  OBJ.....      1.000000   UC..1876  -1965.000000
    y...1877  OBJ.....      1.000000   UC..1877  -1965.000000
    y...1878  OBJ.....      1.000000   UC..1878  -1965.000000
    y...1879  OBJ.....      1.000000   UC..1879  -1965.000000
    y...1880  OBJ.....      1.000000   UC..1880  -1965.000000
    y...1881  OBJ.....      1.000000   UC..1881  -1965.000000
    y...1882  OBJ.....      1.000000   UC..1882  -1965.000000
    y...1883  OBJ.....      1.000000   UC..1883  -1965.000000
    y...1884  OBJ.....      1.000000   UC..1884  -1965.000000
    y...1885  OBJ.....      1.000000   UC..1885  -1965.000000
    y...1886  OBJ.....      1.000000   UC..1886  -1965.000000
    y...1887  OBJ.....      1.000000   UC..1887  -1965.000000
    y...1888  OBJ.....      1.000000   UC..1888  -1965.000000
    y...1889  OBJ.....      1.000000   UC..1889  -1965.000000
    y...1890  OBJ.....      1.000000   UC..1890  -1965.000000
    y...1891  OBJ.....      1.000000   UC..1891  -1965.000000
    y...1892  OBJ.....      1.000000   UC..1892  -1965.000000
    y...1893  OBJ.....      1.000000   UC..1893  -1965.000000
    y...1894  OBJ.....      1.000000   UC..1894  -1965.000000
    y...1895  OBJ.....      1.000000   UC..1895  -1965.000000
    y...1896  OBJ.....      1.000000   UC..1896  -1965.000000
    y...1897  OBJ.....      1.000000   UC..1897  -1965.000000
    y...1898  OBJ.....      1.000000   UC..1898  -1965.000000
    y...1899  OBJ.....      1.000000   UC..1899  -1965.000000
    y...1900  OBJ.....      1.000000   UC..1900  -1965.000000
    y...1901  OBJ.....      1.000000   UC..1901  -1965.000000
    y...1902  OBJ.....      1.000000   UC..1902  -1965.000000
    y...1903  OBJ.....      1.000000   UC..1903  -1965.000000
    y...1904  OBJ.....      1.000000   UC..1904  -1965.000000
    y...1905  OBJ.....      1.000000   UC..1905  -1965.000000
    y...1906  OBJ.....      1.000000   UC..1906  -1965.000000
    y...1907  OBJ.....      1.000000   UC..1907  -1965.000000
    y...1908  OBJ.....      1.000000   UC..1908  -1965.000000
    y...1909  OBJ.....      1.000000   UC..1909  -1965.000000
    y...1910  OBJ.....      1.000000   UC..1910  -1965.000000
    y...1911  OBJ.....      1.000000   UC..1911  -1965.000000
    y...1912  OBJ.....      1.000000   UC..1912  -1965.000000
    y...1913  OBJ.....      1.000000   UC..1913  -1965.000000
    y...1914  OBJ.....      1.000000   UC..1914  -1965.000000
    y...1915  OBJ.....      1.000000   UC..1915  -1965.000000
    y...1916  OBJ.....      1.000000   UC..1916  -1965.000000
    y...1917  OBJ.....      1.000000   UC..1917  -1965.000000
    y...1918  OBJ.....      1.000000   UC..1918  -1965.000000
    y...1919  OBJ.....      1.000000   UC..1919  -1965.000000
    y...1920  OBJ.....      1.000000   UC..1920  -1965.000000
    y...1921  OBJ.....      1.000000   UC..1921  -1965.000000
    y...1922  OBJ.....      1.000000   UC..1922  -1965.000000
    y...1923  OBJ.....      1.000000   UC..1923  -1965.000000
    y...1924  OBJ.....      1.000000   UC..1924  -1965.000000
    y...1925  OBJ.....      1.000000   UC..1925  -1965.000000
    y...1926  OBJ.....      1.000000   UC..1926  -1965.000000
    y...1927  OBJ.....      1.000000   UC..1927  -1965.000000
    y...1928  OBJ.....      1.000000   UC..1928  -1965.000000
    y...1929  OBJ.....      1.000000   UC..1929  -1965.000000
    y...1930  OBJ.....      1.000000   UC..1930  -1965.000000
    y...1931  OBJ.....      1.000000   UC..1931  -1965.000000
    y...1932  OBJ.....      1.000000   UC..1932  -1965.000000
    y...1933  OBJ.....      1.000000   UC..1933  -1965.000000
    y...1934  OBJ.....      1.000000   UC..1934  -1965.000000
    y...1935  OBJ.....      1.000000   UC..1935  -1965.000000
    y...1936  OBJ.....      1.000000   UC..1936  -1965.000000
    y...1937  OBJ.....      1.000000   UC..1937  -1965.000000
    y...1938  OBJ.....      1.000000   UC..1938  -1965.000000
    y...1939  OBJ.....      1.000000   UC..1939  -1965.000000
    y...1940  OBJ.....      1.000000   UC..1940  -1965.000000
    y...1941  OBJ.....      1.000000   UC..1941  -1965.000000
    y...1942  OBJ.....      1.000000   UC..1942  -1965.000000
    y...1943  OBJ.....      1.000000   UC..1943  -1965.000000
    y...1944  OBJ.....      1.000000   UC..1944  -1965.000000
    y...1945  OBJ.....      1.000000   UC..1945  -1965.000000
    y...1946  OBJ.....      1.000000   UC..1946  -1965.000000
    y...1947  OBJ.....      1.000000   UC..1947  -1965.000000
    y...1948  OBJ.....      1.000000   UC..1948  -1965.000000
    y...1949  OBJ.....      1.000000   UC..1949  -1965.000000
    y...1950  OBJ.....      1.000000   UC..1950  -1965.000000
    y...1951  OBJ.....      1.000000   UC..1951  -1965.000000
    y...1952  OBJ.....      1.000000   UC..1952  -1965.000000
    y...1953  OBJ.....      1.000000   UC..1953  -1965.000000
    y...1954  OBJ.....      1.000000   UC..1954  -1965.000000
    y...1955  OBJ.....      1.000000   UC..1955  -1965.000000
    y...1956  OBJ.....      1.000000   UC..1956  -1965.000000
    y...1957  OBJ.....      1.000000   UC..1957  -1965.000000
    y...1958  OBJ.....      1.000000   UC..1958  -1965.000000
    y...1959  OBJ.....      1.000000   UC..1959  -1965.000000
    y...1960  OBJ.....      1.000000   UC..1960  -1965.000000
    y...1961  OBJ.....      1.000000   UC..1961  -1965.000000
    y...1962  OBJ.....      1.000000   UC..1962  -1965.000000
    y...1963  OBJ.....      1.000000   UC..1963  -1965.000000
    y...1964  OBJ.....      1.000000   UC..1964  -1965.000000
    y...1965  OBJ.....      1.000000   UC..1965  -1965.000000
    y...1966  OBJ.....      1.000000   UC..1966  -1965.000000
    y...1967  OBJ.....      1.000000   UC..1967  -1965.000000
    y...1968  OBJ.....      1.000000   UC..1968  -1965.000000
    y...1969  OBJ.....      1.000000   UC..1969  -1965.000000
    y...1970  OBJ.....      1.000000   UC..1970  -1965.000000
    y...1971  OBJ.....      1.000000   UC..1971  -1965.000000
    y...1972  OBJ.....      1.000000   UC..1972  -1965.000000
    y...1973  OBJ.....      1.000000   UC..1973  -1965.000000
    y...1974  OBJ.....      1.000000   UC..1974  -1965.000000
    y...1975  OBJ.....      1.000000   UC..1975  -1965.000000
    y...1976  OBJ.....      1.000000   UC..1976  -1965.000000
    y...1977  OBJ.....      1.000000   UC..1977  -1965.000000
    y...1978  OBJ.....      1.000000   UC..1978  -1965.000000
    y...1979  OBJ.....      1.000000   UC..1979  -1965.000000
    y...1980  OBJ.....      1.000000   UC..1980  -1965.000000
    y...1981  OBJ.....      1.000000   UC..1981  -1965.000000
    y...1982  OBJ.....      1.000000   UC..1982  -1965.000000
    y...1983  OBJ.....      1.000000   UC..1983  -1965.000000
    y...1984  OBJ.....      1.000000   UC..1984  -1965.000000
    y...1985  OBJ.....      1.000000   UC..1985  -1965.000000
    y...1986  OBJ.....      1.000000   UC..1986  -1965.000000
    y...1987  OBJ.....      1.000000   UC..1987  -1965.000000
    y...1988  OBJ.....      1.000000   UC..1988  -1965.000000
    y...1989  OBJ.....      1.000000   UC..1989  -1965.000000
    y...1990  OBJ.....      1.000000   UC..1990  -1965.000000
    y...1991  OBJ.....      1.000000   UC..1991  -1965.000000
    y...1992  OBJ.....      1.000000   UC..1992  -1965.000000
    y...1993  OBJ.....      1.000000   UC..1993  -1965.000000
    y...1994  OBJ.....      1.000000   UC..1994  -1965.000000
    y...1995  OBJ.....      1.000000   UC..1995  -1965.000000
    y...1996  OBJ.....      1.000000   UC..1996  -1965.000000
    y...1997  OBJ.....      1.000000   UC..1997  -1965.000000
    y...1998  OBJ.....      1.000000   UC..1998  -1965.000000
    y...1999  OBJ.....      1.000000   UC..1999  -1965.000000
    y...2000  OBJ.....      1.000000   UC..2000  -1965.000000
    y...2001  OBJ.....      1.000000   UC..2001  -1965.000000
    y...2002  OBJ.....      1.000000   UC..2002  -1965.000000
    y...2003  OBJ.....      1.000000   UC..2003  -1965.000000
    y...2004  OBJ.....      1.000000   UC..2004  -1965.000000
    y...2005  OBJ.....      1.000000   UC..2005  -1965.000000
    y...2006  OBJ.....      1.000000   UC..2006  -1965.000000
    y...2007  OBJ.....      1.000000   UC..2007  -1965.000000
    y...2008  OBJ.....      1.000000   UC..2008  -1965.000000
    y...2009  OBJ.....      1.000000   UC..2009  -1965.000000
    y...2010  OBJ.....      1.000000   UC..2010  -1965.000000
    y...2011  OBJ.....      1.000000   UC..2011  -1965.000000
    y...2012  OBJ.....      1.000000   UC..2012  -1965.000000
    y...2013  OBJ.....      1.000000   UC..2013  -1965.000000
    y...2014  OBJ.....      1.000000   UC..2014  -1965.000000
    y...2015  OBJ.....      1.000000   UC..2015  -1965.000000
    y...2016  OBJ.....      1.000000   UC..2016  -1965.000000
    y...2017  OBJ.....      1.000000   UC..2017  -1965.000000
    y...2018  OBJ.....      1.000000   UC..2018  -1965.000000
    y...2019  OBJ.....      1.000000   UC..2019  -1965.000000
    y...2020  OBJ.....      1.000000   UC..2020  -1965.000000
    y...2021  OBJ.....      1.000000   UC..2021  -1965.000000
    y...2022  OBJ.....      1.000000   UC..2022  -1965.000000
    y...2023  OBJ.....      1.000000   UC..2023  -1965.000000
    y...2024  OBJ.....      1.000000   UC..2024  -1965.000000
    y...2025  OBJ.....      1.000000   UC..2025  -1965.000000
    y...2026  OBJ.....      1.000000   UC..2026  -1965.000000
    y...2027  OBJ.....      1.000000   UC..2027  -1965.000000
    y...2028  OBJ.....      1.000000   UC..2028  -1965.000000
    y...2029  OBJ.....      1.000000   UC..2029  -1965.000000
    y...2030  OBJ.....      1.000000   UC..2030  -1965.000000
    y...2031  OBJ.....      1.000000   UC..2031  -1965.000000
    y...2032  OBJ.....      1.000000   UC..2032  -1965.000000
    y...2033  OBJ.....      1.000000   UC..2033  -1965.000000
    y...2034  OBJ.....      1.000000   UC..2034  -1965.000000
    y...2035  OBJ.....      1.000000   UC..2035  -1965.000000
    y...2036  OBJ.....      1.000000   UC..2036  -1965.000000
    y...2037  OBJ.....      1.000000   UC..2037  -1965.000000
    y...2038  OBJ.....      1.000000   UC..2038  -1965.000000
    y...2039  OBJ.....      1.000000   UC..2039  -1965.000000
    y...2040  OBJ.....      1.000000   UC..2040  -1965.000000
    y...2041  OBJ.....      1.000000   UC..2041  -1965.000000
    y...2042  OBJ.....      1.000000   UC..2042  -1965.000000
    y...2043  OBJ.....      1.000000   UC..2043  -1965.000000
    y...2044  OBJ.....      1.000000   UC..2044  -1965.000000
    y...2045  OBJ.....      1.000000   UC..2045  -1965.000000
    y...2046  OBJ.....      1.000000   UC..2046  -1965.000000
    y...2047  OBJ.....      1.000000   UC..2047  -1965.000000
    y...2048  OBJ.....      1.000000   UC..2048  -1965.000000
    y...2049  OBJ.....      1.000000   UC..2049  -1965.000000
    y...2050  OBJ.....      1.000000   UC..2050  -1965.000000
    y...2051  OBJ.....      1.000000   UC..2051  -1965.000000
    y...2052  OBJ.....      1.000000   UC..2052  -1965.000000
    y...2053  OBJ.....      1.000000   UC..2053  -1965.000000
    y...2054  OBJ.....      1.000000   UC..2054  -1965.000000
    y...2055  OBJ.....      1.000000   UC..2055  -1965.000000
    y...2056  OBJ.....      1.000000   UC..2056  -1965.000000
    y...2057  OBJ.....      1.000000   UC..2057  -1965.000000
    y...2058  OBJ.....      1.000000   UC..2058  -1965.000000
    y...2059  OBJ.....      1.000000   UC..2059  -1965.000000
    y...2060  OBJ.....      1.000000   UC..2060  -1965.000000
    y...2061  OBJ.....      1.000000   UC..2061  -1965.000000
    y...2062  OBJ.....      1.000000   UC..2062  -1965.000000
    y...2063  OBJ.....      1.000000   UC..2063  -1965.000000
    y...2064  OBJ.....      1.000000   UC..2064  -1965.000000
    y...2065  OBJ.....      1.000000   UC..2065  -1965.000000
    y...2066  OBJ.....      1.000000   UC..2066  -1965.000000
    y...2067  OBJ.....      1.000000   UC..2067  -1965.000000
    y...2068  OBJ.....      1.000000   UC..2068  -1965.000000
    y...2069  OBJ.....      1.000000   UC..2069  -1965.000000
    y...2070  OBJ.....      1.000000   UC..2070  -1965.000000
    y...2071  OBJ.....      1.000000   UC..2071  -1965.000000
    y...2072  OBJ.....      1.000000   UC..2072  -1965.000000
    y...2073  OBJ.....      1.000000   UC..2073  -1965.000000
    y...2074  OBJ.....      1.000000   UC..2074  -1965.000000
    y...2075  OBJ.....      1.000000   UC..2075  -1965.000000
    y...2076  OBJ.....      1.000000   UC..2076  -1965.000000
    y...2077  OBJ.....      1.000000   UC..2077  -1965.000000
    y...2078  OBJ.....      1.000000   UC..2078  -1965.000000
    y...2079  OBJ.....      1.000000   UC..2079  -1965.000000
    y...2080  OBJ.....      1.000000   UC..2080  -1965.000000
    y...2081  OBJ.....      1.000000   UC..2081  -1965.000000
    y...2082  OBJ.....      1.000000   UC..2082  -1965.000000
    y...2083  OBJ.....      1.000000   UC..2083  -1965.000000
    y...2084  OBJ.....      1.000000   UC..2084  -1965.000000
    y...2085  OBJ.....      1.000000   UC..2085  -1965.000000
    y...2086  OBJ.....      1.000000   UC..2086  -1965.000000
    y...2087  OBJ.....      1.000000   UC..2087  -1965.000000
    y...2088  OBJ.....      1.000000   UC..2088  -1965.000000
    y...2089  OBJ.....      1.000000   UC..2089  -1965.000000
    y...2090  OBJ.....      1.000000   UC..2090  -1965.000000
    y...2091  OBJ.....      1.000000   UC..2091  -1965.000000
    y...2092  OBJ.....      1.000000   UC..2092  -1965.000000
    y...2093  OBJ.....      1.000000   UC..2093  -1965.000000
    y...2094  OBJ.....      1.000000   UC..2094  -1965.000000
    y...2095  OBJ.....      1.000000   UC..2095  -1965.000000
    y...2096  OBJ.....      1.000000   UC..2096  -1965.000000
    y...2097  OBJ.....      1.000000   UC..2097  -1965.000000
    y...2098  OBJ.....      1.000000   UC..2098  -1965.000000
    y...2099  OBJ.....      1.000000   UC..2099  -1965.000000
    y...2100  OBJ.....      1.000000   UC..2100  -1965.000000
    y...2101  OBJ.....      1.000000   UC..2101  -1965.000000
    y...2102  OBJ.....      1.000000   UC..2102  -1965.000000
    y...2103  OBJ.....      1.000000   UC..2103  -1965.000000
    y...2104  OBJ.....      1.000000   UC..2104  -1965.000000
    y...2105  OBJ.....      1.000000   UC..2105  -1965.000000
    y...2106  OBJ.....      1.000000   UC..2106  -1965.000000
    y...2107  OBJ.....      1.000000   UC..2107  -1965.000000
    y...2108  OBJ.....      1.000000   UC..2108  -1965.000000
    y...2109  OBJ.....      1.000000   UC..2109  -1965.000000
    y...2110  OBJ.....      1.000000   UC..2110  -1965.000000
    y...2111  OBJ.....      1.000000   UC..2111  -1965.000000
    y...2112  OBJ.....      1.000000   UC..2112  -1965.000000
    y...2113  OBJ.....      1.000000   UC..2113  -1965.000000
    y...2114  OBJ.....      1.000000   UC..2114  -1965.000000
    y...2115  OBJ.....      1.000000   UC..2115  -1965.000000
    y...2116  OBJ.....      1.000000   UC..2116  -1965.000000
    y...2117  OBJ.....      1.000000   UC..2117  -1965.000000
    y...2118  OBJ.....      1.000000   UC..2118  -1965.000000
    y...2119  OBJ.....      1.000000   UC..2119  -1965.000000
    y...2120  OBJ.....      1.000000   UC..2120  -1965.000000
    y...2121  OBJ.....      1.000000   UC..2121  -1965.000000
    y...2122  OBJ.....      1.000000   UC..2122  -1965.000000
    y...2123  OBJ.....      1.000000   UC..2123  -1965.000000
    y...2124  OBJ.....      1.000000   UC..2124  -1965.000000
    y...2125  OBJ.....      1.000000   UC..2125  -1965.000000
    y...2126  OBJ.....      1.000000   UC..2126  -1965.000000
    y...2127  OBJ.....      1.000000   UC..2127  -1965.000000
    y...2128  OBJ.....      1.000000   UC..2128  -1965.000000
    y...2129  OBJ.....      1.000000   UC..2129  -1965.000000
    y...2130  OBJ.....      1.000000   UC..2130  -1965.000000
    y...2131  OBJ.....      1.000000   UC..2131  -1965.000000
    y...2132  OBJ.....      1.000000   UC..2132  -1965.000000
    y...2133  OBJ.....      1.000000   UC..2133  -1965.000000
    y...2134  OBJ.....      1.000000   UC..2134  -1965.000000
    y...2135  OBJ.....      1.000000   UC..2135  -1965.000000
    y...2136  OBJ.....      1.000000   UC..2136  -1965.000000
    y...2137  OBJ.....      1.000000   UC..2137  -1965.000000
    y...2138  OBJ.....      1.000000   UC..2138  -1965.000000
    y...2139  OBJ.....      1.000000   UC..2139  -1965.000000
    y...2140  OBJ.....      1.000000   UC..2140  -1965.000000
    y...2141  OBJ.....      1.000000   UC..2141  -1965.000000
    y...2142  OBJ.....      1.000000   UC..2142  -1965.000000
    y...2143  OBJ.....      1.000000   UC..2143  -1965.000000
    y...2144  OBJ.....      1.000000   UC..2144  -1965.000000
    y...2145  OBJ.....      1.000000   UC..2145  -1965.000000
    y...2146  OBJ.....      1.000000   UC..2146  -1965.000000
    y...2147  OBJ.....      1.000000   UC..2147  -1965.000000
    y...2148  OBJ.....      1.000000   UC..2148  -1965.000000
    y...2149  OBJ.....      1.000000   UC..2149  -1965.000000
    y...2150  OBJ.....      1.000000   UC..2150  -1965.000000
    y...2151  OBJ.....      1.000000   UC..2151  -1965.000000
    y...2152  OBJ.....      1.000000   UC..2152  -1965.000000
    y...2153  OBJ.....      1.000000   UC..2153  -1965.000000
    y...2154  OBJ.....      1.000000   UC..2154  -1965.000000
    y...2155  OBJ.....      1.000000   UC..2155  -1965.000000
    y...2156  OBJ.....      1.000000   UC..2156  -1965.000000
    y...2157  OBJ.....      1.000000   UC..2157  -1965.000000
    y...2158  OBJ.....      1.000000   UC..2158  -1965.000000
    y...2159  OBJ.....      1.000000   UC..2159  -1965.000000
    y...2160  OBJ.....      1.000000   UC..2160  -1965.000000
    y...2161  OBJ.....      1.000000   UC..2161  -1965.000000
    y...2162  OBJ.....      1.000000   UC..2162  -1965.000000
    y...2163  OBJ.....      1.000000   UC..2163  -1965.000000
    y...2164  OBJ.....      1.000000   UC..2164  -1965.000000
    y...2165  OBJ.....      1.000000   UC..2165  -1965.000000
    y...2166  OBJ.....      1.000000   UC..2166  -1965.000000
    y...2167  OBJ.....      1.000000   UC..2167  -1965.000000
    y...2168  OBJ.....      1.000000   UC..2168  -1965.000000
    y...2169  OBJ.....      1.000000   UC..2169  -1965.000000
    y...2170  OBJ.....      1.000000   UC..2170  -1965.000000
    y...2171  OBJ.....      1.000000   UC..2171  -1965.000000
    y...2172  OBJ.....      1.000000   UC..2172  -1965.000000
    y...2173  OBJ.....      1.000000   UC..2173  -1965.000000
    y...2174  OBJ.....      1.000000   UC..2174  -1965.000000
    y...2175  OBJ.....      1.000000   UC..2175  -1965.000000
    y...2176  OBJ.....      1.000000   UC..2176  -1965.000000
    y...2177  OBJ.....      1.000000   UC..2177  -1965.000000
    y...2178  OBJ.....      1.000000   UC..2178  -1965.000000
    y...2179  OBJ.....      1.000000   UC..2179  -1965.000000
    y...2180  OBJ.....      1.000000   UC..2180  -1965.000000
    y...2181  OBJ.....      1.000000   UC..2181  -1965.000000
    y...2182  OBJ.....      1.000000   UC..2182  -1965.000000
    y...2183  OBJ.....      1.000000   UC..2183  -1965.000000
    y...2184  OBJ.....      1.000000   UC..2184  -1965.000000
    y...2185  OBJ.....      1.000000   UC..2185  -1965.000000
    y...2186  OBJ.....      1.000000   UC..2186  -1965.000000
    y...2187  OBJ.....      1.000000   UC..2187  -1965.000000
    y...2188  OBJ.....      1.000000   UC..2188  -1965.000000
    y...2189  OBJ.....      1.000000   UC..2189  -1965.000000
    y...2190  OBJ.....      1.000000   UC..2190  -1965.000000
    y...2191  OBJ.....      1.000000   UC..2191  -1965.000000
    y...2192  OBJ.....      1.000000   UC..2192  -1965.000000
    y...2193  OBJ.....      1.000000   UC..2193  -1965.000000
    y...2194  OBJ.....      1.000000   UC..2194  -1965.000000
    y...2195  OBJ.....      1.000000   UC..2195  -1965.000000
    y...2196  OBJ.....      1.000000   UC..2196  -1965.000000
    y...2197  OBJ.....      1.000000   UC..2197  -1965.000000
    y...2198  OBJ.....      1.000000   UC..2198  -1965.000000
    y...2199  OBJ.....      1.000000   UC..2199  -1965.000000
    y...2200  OBJ.....      1.000000   UC..2200  -1965.000000
    y...2201  OBJ.....      1.000000   UC..2201  -1965.000000
    y...2202  OBJ.....      1.000000   UC..2202  -1965.000000
    y...2203  OBJ.....      1.000000   UC..2203  -1965.000000
    y...2204  OBJ.....      1.000000   UC..2204  -1965.000000
    y...2205  OBJ.....      1.000000   UC..2205  -1965.000000
    y...2206  OBJ.....      1.000000   UC..2206  -1965.000000
    y...2207  OBJ.....      1.000000   UC..2207  -1965.000000
    y...2208  OBJ.....      1.000000   UC..2208  -1965.000000
    y...2209  OBJ.....      1.000000   UC..2209  -1965.000000
    y...2210  OBJ.....      1.000000   UC..2210  -1965.000000
    y...2211  OBJ.....      1.000000   UC..2211  -1965.000000
    y...2212  OBJ.....      1.000000   UC..2212  -1965.000000
    y...2213  OBJ.....      1.000000   UC..2213  -1965.000000
    y...2214  OBJ.....      1.000000   UC..2214  -1965.000000
    y...2215  OBJ.....      1.000000   UC..2215  -1965.000000
    y...2216  OBJ.....      1.000000   UC..2216  -1965.000000
    y...2217  OBJ.....      1.000000   UC..2217  -1965.000000
    y...2218  OBJ.....      1.000000   UC..2218  -1965.000000
    y...2219  OBJ.....      1.000000   UC..2219  -1965.000000
    y...2220  OBJ.....      1.000000   UC..2220  -1965.000000
    y...2221  OBJ.....      1.000000   UC..2221  -1965.000000
    y...2222  OBJ.....      1.000000   UC..2222  -1965.000000
    y...2223  OBJ.....      1.000000   UC..2223  -1965.000000
    y...2224  OBJ.....      1.000000   UC..2224  -1965.000000
    y...2225  OBJ.....      1.000000   UC..2225  -1965.000000
    y...2226  OBJ.....      1.000000   UC..2226  -1965.000000
    y...2227  OBJ.....      1.000000   UC..2227  -1965.000000
    y...2228  OBJ.....      1.000000   UC..2228  -1965.000000
    y...2229  OBJ.....      1.000000   UC..2229  -1965.000000
    y...2230  OBJ.....      1.000000   UC..2230  -1965.000000
    y...2231  OBJ.....      1.000000   UC..2231  -1965.000000
    y...2232  OBJ.....      1.000000   UC..2232  -1965.000000
    y...2233  OBJ.....      1.000000   UC..2233  -1965.000000
    y...2234  OBJ.....      1.000000   UC..2234  -1965.000000
    y...2235  OBJ.....      1.000000   UC..2235  -1965.000000
    y...2236  OBJ.....      1.000000   UC..2236  -1965.000000
    y...2237  OBJ.....      1.000000   UC..2237  -1965.000000
    y...2238  OBJ.....      1.000000   UC..2238  -1965.000000
    y...2239  OBJ.....      1.000000   UC..2239  -1965.000000
    y...2240  OBJ.....      1.000000   UC..2240  -1965.000000
    y...2241  OBJ.....      1.000000   UC..2241  -1965.000000
    y...2242  OBJ.....      1.000000   UC..2242  -1965.000000
    y...2243  OBJ.....      1.000000   UC..2243  -1965.000000
    y...2244  OBJ.....      1.000000   UC..2244  -1965.000000
    y...2245  OBJ.....      1.000000   UC..2245  -1965.000000
    y...2246  OBJ.....      1.000000   UC..2246  -1965.000000
    y...2247  OBJ.....      1.000000   UC..2247  -1965.000000
    y...2248  OBJ.....      1.000000   UC..2248  -1965.000000
    y...2249  OBJ.....      1.000000   UC..2249  -1965.000000
    y...2250  OBJ.....      1.000000   UC..2250  -1965.000000
    y...2251  OBJ.....      1.000000   UC..2251  -1965.000000
    y...2252  OBJ.....      1.000000   UC..2252  -1965.000000
    y...2253  OBJ.....      1.000000   UC..2253  -1965.000000
    y...2254  OBJ.....      1.000000   UC..2254  -1965.000000
    y...2255  OBJ.....      1.000000   UC..2255  -1965.000000
    y...2256  OBJ.....      1.000000   UC..2256  -1965.000000
    y...2257  OBJ.....      1.000000   UC..2257  -1965.000000
    y...2258  OBJ.....      1.000000   UC..2258  -1965.000000
    y...2259  OBJ.....      1.000000   UC..2259  -1965.000000
    y...2260  OBJ.....      1.000000   UC..2260  -1965.000000
    y...2261  OBJ.....      1.000000   UC..2261  -1965.000000
    y...2262  OBJ.....      1.000000   UC..2262  -1965.000000
    y...2263  OBJ.....      1.000000   UC..2263  -1965.000000
    y...2264  OBJ.....      1.000000   UC..2264  -1965.000000
    y...2265  OBJ.....      1.000000   UC..2265  -1965.000000
    y...2266  OBJ.....      1.000000   UC..2266  -1965.000000
    y...2267  OBJ.....      1.000000   UC..2267  -1965.000000
    y...2268  OBJ.....      1.000000   UC..2268  -1965.000000
    y...2269  OBJ.....      1.000000   UC..2269  -1965.000000
    y...2270  OBJ.....      1.000000   UC..2270  -1965.000000
    y...2271  OBJ.....      1.000000   UC..2271  -1965.000000
    y...2272  OBJ.....      1.000000   UC..2272  -1965.000000
    y...2273  OBJ.....      1.000000   UC..2273  -1965.000000
    y...2274  OBJ.....      1.000000   UC..2274  -1965.000000
    y...2275  OBJ.....      1.000000   UC..2275  -1965.000000
    y...2276  OBJ.....      1.000000   UC..2276  -1965.000000
    y...2277  OBJ.....      1.000000   UC..2277  -1965.000000
    y...2278  OBJ.....      1.000000   UC..2278  -1965.000000
    y...2279  OBJ.....      1.000000   UC..2279  -1965.000000
    y...2280  OBJ.....      1.000000   UC..2280  -1965.000000
    y...2281  OBJ.....      1.000000   UC..2281  -1965.000000
    y...2282  OBJ.....      1.000000   UC..2282  -1965.000000
    y...2283  OBJ.....      1.000000   UC..2283  -1965.000000
    y...2284  OBJ.....      1.000000   UC..2284  -1965.000000
    y...2285  OBJ.....      1.000000   UC..2285  -1965.000000
    y...2286  OBJ.....      1.000000   UC..2286  -1965.000000
    y...2287  OBJ.....      1.000000   UC..2287  -1965.000000
    y...2288  OBJ.....      1.000000   UC..2288  -1965.000000
    y...2289  OBJ.....      1.000000   UC..2289  -1965.000000
    y...2290  OBJ.....      1.000000   UC..2290  -1965.000000
    y...2291  OBJ.....      1.000000   UC..2291  -1965.000000
    y...2292  OBJ.....      1.000000   UC..2292  -1965.000000
    y...2293  OBJ.....      1.000000   UC..2293  -1965.000000
    y...2294  OBJ.....      1.000000   UC..2294  -1965.000000
    y...2295  OBJ.....      1.000000   UC..2295  -1965.000000
    y...2296  OBJ.....      1.000000   UC..2296  -1965.000000
    y...2297  OBJ.....      1.000000   UC..2297  -1965.000000
    y...2298  OBJ.....      1.000000   UC..2298  -1965.000000
    y...2299  OBJ.....      1.000000   UC..2299  -1965.000000
    y...2300  OBJ.....      1.000000   UC..2300  -1965.000000
    y...2301  OBJ.....      1.000000   UC..2301  -1965.000000
    y...2302  OBJ.....      1.000000   UC..2302  -1965.000000
    y...2303  OBJ.....      1.000000   UC..2303  -1965.000000
    y...2304  OBJ.....      1.000000   UC..2304  -1965.000000
    y...2305  OBJ.....      1.000000   UC..2305  -1965.000000
    y...2306  OBJ.....      1.000000   UC..2306  -1965.000000
    y...2307  OBJ.....      1.000000   UC..2307  -1965.000000
    y...2308  OBJ.....      1.000000   UC..2308  -1965.000000
    y...2309  OBJ.....      1.000000   UC..2309  -1965.000000
    y...2310  OBJ.....      1.000000   UC..2310  -1965.000000
    y...2311  OBJ.....      1.000000   UC..2311  -1965.000000
    y...2312  OBJ.....      1.000000   UC..2312  -1965.000000
    y...2313  OBJ.....      1.000000   UC..2313  -1965.000000
    y...2314  OBJ.....      1.000000   UC..2314  -1965.000000
    y...2315  OBJ.....      1.000000   UC..2315  -1965.000000
    y...2316  OBJ.....      1.000000   UC..2316  -1965.000000
    y...2317  OBJ.....      1.000000   UC..2317  -1965.000000
    y...2318  OBJ.....      1.000000   UC..2318  -1965.000000
    y...2319  OBJ.....      1.000000   UC..2319  -1965.000000
    y...2320  OBJ.....      1.000000   UC..2320  -1965.000000
    y...2321  OBJ.....      1.000000   UC..2321  -1965.000000
    y...2322  OBJ.....      1.000000   UC..2322  -1965.000000
    y...2323  OBJ.....      1.000000   UC..2323  -1965.000000
    y...2324  OBJ.....      1.000000   UC..2324  -1965.000000
    y...2325  OBJ.....      1.000000   UC..2325  -1965.000000
    y...2326  OBJ.....      1.000000   UC..2326  -1965.000000
    y...2327  OBJ.....      1.000000   UC..2327  -1965.000000
    y...2328  OBJ.....      1.000000   UC..2328  -1965.000000
    y...2329  OBJ.....      1.000000   UC..2329  -1965.000000
    y...2330  OBJ.....      1.000000   UC..2330  -1965.000000
    y...2331  OBJ.....      1.000000   UC..2331  -1965.000000
    y...2332  OBJ.....      1.000000   UC..2332  -1965.000000
    y...2333  OBJ.....      1.000000   UC..2333  -1965.000000
    y...2334  OBJ.....      1.000000   UC..2334  -1965.000000
    y...2335  OBJ.....      1.000000   UC..2335  -1965.000000
    y...2336  OBJ.....      1.000000   UC..2336  -1965.000000
    y...2337  OBJ.....      1.000000   UC..2337  -1965.000000
    y...2338  OBJ.....      1.000000   UC..2338  -1965.000000
    y...2339  OBJ.....      1.000000   UC..2339  -1965.000000
    y...2340  OBJ.....      1.000000   UC..2340  -1965.000000
    y...2341  OBJ.....      1.000000   UC..2341  -1965.000000
    y...2342  OBJ.....      1.000000   UC..2342  -1965.000000
    y...2343  OBJ.....      1.000000   UC..2343  -1965.000000
    y...2344  OBJ.....      1.000000   UC..2344  -1965.000000
    y...2345  OBJ.....      1.000000   UC..2345  -1965.000000
    y...2346  OBJ.....      1.000000   UC..2346  -1965.000000
    y...2347  OBJ.....      1.000000   UC..2347  -1965.000000
    y...2348  OBJ.....      1.000000   UC..2348  -1965.000000
    y...2349  OBJ.....      1.000000   UC..2349  -1965.000000
    y...2350  OBJ.....      1.000000   UC..2350  -1965.000000
    y...2351  OBJ.....      1.000000   UC..2351  -1965.000000
    y...2352  OBJ.....      1.000000   UC..2352  -1965.000000
    y...2353  OBJ.....      1.000000   UC..2353  -1965.000000
    y...2354  OBJ.....      1.000000   UC..2354  -1965.000000
    y...2355  OBJ.....      1.000000   UC..2355  -1965.000000
    y...2356  OBJ.....      1.000000   UC..2356  -1965.000000
    y...2357  OBJ.....      1.000000   UC..2357  -1965.000000
    y...2358  OBJ.....      1.000000   UC..2358  -1965.000000
    y...2359  OBJ.....      1.000000   UC..2359  -1965.000000
    y...2360  OBJ.....      1.000000   UC..2360  -1965.000000
    y...2361  OBJ.....      1.000000   UC..2361  -1965.000000
    y...2362  OBJ.....      1.000000   UC..2362  -1965.000000
    y...2363  OBJ.....      1.000000   UC..2363  -1965.000000
    y...2364  OBJ.....      1.000000   UC..2364  -1965.000000
    y...2365  OBJ.....      1.000000   UC..2365  -1965.000000
    y...2366  OBJ.....      1.000000   UC..2366  -1965.000000
    y...2367  OBJ.....      1.000000   UC..2367  -1965.000000
    y...2368  OBJ.....      1.000000   UC..2368  -1965.000000
    y...2369  OBJ.....      1.000000   UC..2369  -1965.000000
    y...2370  OBJ.....      1.000000   UC..2370  -1965.000000
    y...2371  OBJ.....      1.000000   UC..2371  -1965.000000
    y...2372  OBJ.....      1.000000   UC..2372  -1965.000000
    y...2373  OBJ.....      1.000000   UC..2373  -1965.000000
    y...2374  OBJ.....      1.000000   UC..2374  -1965.000000
    y...2375  OBJ.....      1.000000   UC..2375  -1965.000000
    y...2376  OBJ.....      1.000000   UC..2376  -1965.000000
    y...2377  OBJ.....      1.000000   UC..2377  -1965.000000
    y...2378  OBJ.....      1.000000   UC..2378  -1965.000000
    y...2379  OBJ.....      1.000000   UC..2379  -1965.000000
    y...2380  OBJ.....      1.000000   UC..2380  -1965.000000
    y...2381  OBJ.....      1.000000   UC..2381  -1965.000000
    y...2382  OBJ.....      1.000000   UC..2382  -1965.000000
    y...2383  OBJ.....      1.000000   UC..2383  -1965.000000
    y...2384  OBJ.....      1.000000   UC..2384  -1965.000000
    y...2385  OBJ.....      1.000000   UC..2385  -1965.000000
    y...2386  OBJ.....      1.000000   UC..2386  -1965.000000
    y...2387  OBJ.....      1.000000   UC..2387  -1965.000000
    y...2388  OBJ.....      1.000000   UC..2388  -1965.000000
    y...2389  OBJ.....      1.000000   UC..2389  -1965.000000
    y...2390  OBJ.....      1.000000   UC..2390  -1965.000000
    y...2391  OBJ.....      1.000000   UC..2391  -1965.000000
    y...2392  OBJ.....      1.000000   UC..2392  -1965.000000
    y...2393  OBJ.....      1.000000   UC..2393  -1965.000000
    y...2394  OBJ.....      1.000000   UC..2394  -1965.000000
    y...2395  OBJ.....      1.000000   UC..2395  -1965.000000
    y...2396  OBJ.....      1.000000   UC..2396  -1965.000000
    y...2397  OBJ.....      1.000000   UC..2397  -1965.000000
    y...2398  OBJ.....      1.000000   UC..2398  -1965.000000
    y...2399  OBJ.....      1.000000   UC..2399  -1965.000000
    y...2400  OBJ.....      1.000000   UC..2400  -1965.000000
    y...2401  OBJ.....      1.000000   UC..2401  -1965.000000
    y...2402  OBJ.....      1.000000   UC..2402  -1965.000000
    y...2403  OBJ.....      1.000000   UC..2403  -1965.000000
    y...2404  OBJ.....      1.000000   UC..2404  -1965.000000
    y...2405  OBJ.....      1.000000   UC..2405  -1965.000000
    y...2406  OBJ.....      1.000000   UC..2406  -1965.000000
    y...2407  OBJ.....      1.000000   UC..2407  -1965.000000
    y...2408  OBJ.....      1.000000   UC..2408  -1965.000000
    y...2409  OBJ.....      1.000000   UC..2409  -1965.000000
    y...2410  OBJ.....      1.000000   UC..2410  -1965.000000
    y...2411  OBJ.....      1.000000   UC..2411  -1965.000000
    y...2412  OBJ.....      1.000000   UC..2412  -1965.000000
    y...2413  OBJ.....      1.000000   UC..2413  -1965.000000
    y...2414  OBJ.....      1.000000   UC..2414  -1965.000000
    y...2415  OBJ.....      1.000000   UC..2415  -1965.000000
    y...2416  OBJ.....      1.000000   UC..2416  -1965.000000
    y...2417  OBJ.....      1.000000   UC..2417  -1965.000000
    y...2418  OBJ.....      1.000000   UC..2418  -1965.000000
    y...2419  OBJ.....      1.000000   UC..2419  -1965.000000
    y...2420  OBJ.....      1.000000   UC..2420  -1965.000000
    y...2421  OBJ.....      1.000000   UC..2421  -1965.000000
    y...2422  OBJ.....      1.000000   UC..2422  -1965.000000
    y...2423  OBJ.....      1.000000   UC..2423  -1965.000000
    y...2424  OBJ.....      1.000000   UC..2424  -1965.000000
    y...2425  OBJ.....      1.000000   UC..2425  -1965.000000
    y...2426  OBJ.....      1.000000   UC..2426  -1965.000000
    y...2427  OBJ.....      1.000000   UC..2427  -1965.000000
    y...2428  OBJ.....      1.000000   UC..2428  -1965.000000
    y...2429  OBJ.....      1.000000   UC..2429  -1965.000000
    y...2430  OBJ.....      1.000000   UC..2430  -1965.000000
    y...2431  OBJ.....      1.000000   UC..2431  -1965.000000
    y...2432  OBJ.....      1.000000   UC..2432  -1965.000000
    y...2433  OBJ.....      1.000000   UC..2433  -1965.000000
    y...2434  OBJ.....      1.000000   UC..2434  -1965.000000
    y...2435  OBJ.....      1.000000   UC..2435  -1965.000000
    y...2436  OBJ.....      1.000000   UC..2436  -1965.000000
    y...2437  OBJ.....      1.000000   UC..2437  -1965.000000
    y...2438  OBJ.....      1.000000   UC..2438  -1965.000000
    y...2439  OBJ.....      1.000000   UC..2439  -1965.000000
    y...2440  OBJ.....      1.000000   UC..2440  -1965.000000
    y...2441  OBJ.....      1.000000   UC..2441  -1965.000000
    y...2442  OBJ.....      1.000000   UC..2442  -1965.000000
    y...2443  OBJ.....      1.000000   UC..2443  -1965.000000
    y...2444  OBJ.....      1.000000   UC..2444  -1965.000000
    y...2445  OBJ.....      1.000000   UC..2445  -1965.000000
    y...2446  OBJ.....      1.000000   UC..2446  -1965.000000
    y...2447  OBJ.....      1.000000   UC..2447  -1965.000000
    y...2448  OBJ.....      1.000000   UC..2448  -1965.000000
    y...2449  OBJ.....      1.000000   UC..2449  -1965.000000
    y...2450  OBJ.....      1.000000   UC..2450  -1965.000000
    y...2451  OBJ.....      1.000000   UC..2451  -1965.000000
    y...2452  OBJ.....      1.000000   UC..2452  -1965.000000
    y...2453  OBJ.....      1.000000   UC..2453  -1965.000000
    y...2454  OBJ.....      1.000000   UC..2454  -1965.000000
    y...2455  OBJ.....      1.000000   UC..2455  -1965.000000
    y...2456  OBJ.....      1.000000   UC..2456  -1965.000000
    y...2457  OBJ.....      1.000000   UC..2457  -1965.000000
    y...2458  OBJ.....      1.000000   UC..2458  -1965.000000
    y...2459  OBJ.....      1.000000   UC..2459  -1965.000000
    y...2460  OBJ.....      1.000000   UC..2460  -1965.000000
    y...2461  OBJ.....      1.000000   UC..2461  -1965.000000
    y...2462  OBJ.....      1.000000   UC..2462  -1965.000000
    y...2463  OBJ.....      1.000000   UC..2463  -1965.000000
    y...2464  OBJ.....      1.000000   UC..2464  -1965.000000
    y...2465  OBJ.....      1.000000   UC..2465  -1965.000000
    y...2466  OBJ.....      1.000000   UC..2466  -1965.000000
    y...2467  OBJ.....      1.000000   UC..2467  -1965.000000
    y...2468  OBJ.....      1.000000   UC..2468  -1965.000000
    y...2469  OBJ.....      1.000000   UC..2469  -1965.000000
    y...2470  OBJ.....      1.000000   UC..2470  -1965.000000
    y...2471  OBJ.....      1.000000   UC..2471  -1965.000000
    y...2472  OBJ.....      1.000000   UC..2472  -1965.000000
    y...2473  OBJ.....      1.000000   UC..2473  -1965.000000
    y...2474  OBJ.....      1.000000   UC..2474  -1965.000000
    y...2475  OBJ.....      1.000000   UC..2475  -1965.000000
    y...2476  OBJ.....      1.000000   UC..2476  -1965.000000
    y...2477  OBJ.....      1.000000   UC..2477  -1965.000000
    y...2478  OBJ.....      1.000000   UC..2478  -1965.000000
    y...2479  OBJ.....      1.000000   UC..2479  -1965.000000
    y...2480  OBJ.....      1.000000   UC..2480  -1965.000000
    y...2481  OBJ.....      1.000000   UC..2481  -1965.000000
    y...2482  OBJ.....      1.000000   UC..2482  -1965.000000
    y...2483  OBJ.....      1.000000   UC..2483  -1965.000000
    y...2484  OBJ.....      1.000000   UC..2484  -1965.000000
    y...2485  OBJ.....      1.000000   UC..2485  -1965.000000
    y...2486  OBJ.....      1.000000   UC..2486  -1965.000000
    y...2487  OBJ.....      1.000000   UC..2487  -1965.000000
    y...2488  OBJ.....      1.000000   UC..2488  -1965.000000
    y...2489  OBJ.....      1.000000   UC..2489  -1965.000000
    y...2490  OBJ.....      1.000000   UC..2490  -1965.000000
    y...2491  OBJ.....      1.000000   UC..2491  -1965.000000
    y...2492  OBJ.....      1.000000   UC..2492  -1965.000000
    y...2493  OBJ.....      1.000000   UC..2493  -1965.000000
    y...2494  OBJ.....      1.000000   UC..2494  -1965.000000
    y...2495  OBJ.....      1.000000   UC..2495  -1965.000000
    y...2496  OBJ.....      1.000000   UC..2496  -1965.000000
    y...2497  OBJ.....      1.000000   UC..2497  -1965.000000
    y...2498  OBJ.....      1.000000   UC..2498  -1965.000000
    y...2499  OBJ.....      1.000000   UC..2499  -1965.000000
    y...2500  OBJ.....      1.000000   UC..2500  -1965.000000
    y...2501  OBJ.....      1.000000   UC..2501  -1965.000000
    y...2502  OBJ.....      1.000000   UC..2502  -1965.000000
    y...2503  OBJ.....      1.000000   UC..2503  -1965.000000
    y...2504  OBJ.....      1.000000   UC..2504  -1965.000000
    y...2505  OBJ.....      1.000000   UC..2505  -1965.000000
    y...2506  OBJ.....      1.000000   UC..2506  -1965.000000
    y...2507  OBJ.....      1.000000   UC..2507  -1965.000000
    y...2508  OBJ.....      1.000000   UC..2508  -1965.000000
    y...2509  OBJ.....      1.000000   UC..2509  -1965.000000
    y...2510  OBJ.....      1.000000   UC..2510  -1965.000000
    y...2511  OBJ.....      1.000000   UC..2511  -1965.000000
    y...2512  OBJ.....      1.000000   UC..2512  -1965.000000
    y...2513  OBJ.....      1.000000   UC..2513  -1965.000000
    y...2514  OBJ.....      1.000000   UC..2514  -1965.000000
    y...2515  OBJ.....      1.000000   UC..2515  -1965.000000
    y...2516  OBJ.....      1.000000   UC..2516  -1965.000000
    y...2517  OBJ.....      1.000000   UC..2517  -1965.000000
    y...2518  OBJ.....      1.000000   UC..2518  -1965.000000
    y...2519  OBJ.....      1.000000   UC..2519  -1965.000000
    y...2520  OBJ.....      1.000000   UC..2520  -1965.000000
    y...2521  OBJ.....      1.000000   UC..2521  -1965.000000
    y...2522  OBJ.....      1.000000   UC..2522  -1965.000000
    y...2523  OBJ.....      1.000000   UC..2523  -1965.000000
    y...2524  OBJ.....      1.000000   UC..2524  -1965.000000
    y...2525  OBJ.....      1.000000   UC..2525  -1965.000000
    y...2526  OBJ.....      1.000000   UC..2526  -1965.000000
    y...2527  OBJ.....      1.000000   UC..2527  -1965.000000
    y...2528  OBJ.....      1.000000   UC..2528  -1965.000000
    y...2529  OBJ.....      1.000000   UC..2529  -1965.000000
    y...2530  OBJ.....      1.000000   UC..2530  -1965.000000
    y...2531  OBJ.....      1.000000   UC..2531  -1965.000000
    y...2532  OBJ.....      1.000000   UC..2532  -1965.000000
    y...2533  OBJ.....      1.000000   UC..2533  -1965.000000
    y...2534  OBJ.....      1.000000   UC..2534  -1965.000000
    y...2535  OBJ.....      1.000000   UC..2535  -1965.000000
    y...2536  OBJ.....      1.000000   UC..2536  -1965.000000
    y...2537  OBJ.....      1.000000   UC..2537  -1965.000000
    y...2538  OBJ.....      1.000000   UC..2538  -1965.000000
    y...2539  OBJ.....      1.000000   UC..2539  -1965.000000
    y...2540  OBJ.....      1.000000   UC..2540  -1965.000000
    y...2541  OBJ.....      1.000000   UC..2541  -1965.000000
    y...2542  OBJ.....      1.000000   UC..2542  -1965.000000
    y...2543  OBJ.....      1.000000   UC..2543  -1965.000000
    y...2544  OBJ.....      1.000000   UC..2544  -1965.000000
    y...2545  OBJ.....      1.000000   UC..2545  -1965.000000
    y...2546  OBJ.....      1.000000   UC..2546  -1965.000000
    y...2547  OBJ.....      1.000000   UC..2547  -1965.000000
    y...2548  OBJ.....      1.000000   UC..2548  -1965.000000
    y...2549  OBJ.....      1.000000   UC..2549  -1965.000000
    y...2550  OBJ.....      1.000000   UC..2550  -1965.000000
    y...2551  OBJ.....      1.000000   UC..2551  -1965.000000
    y...2552  OBJ.....      1.000000   UC..2552  -1965.000000
    y...2553  OBJ.....      1.000000   UC..2553  -1965.000000
    y...2554  OBJ.....      1.000000   UC..2554  -1965.000000
    y...2555  OBJ.....      1.000000   UC..2555  -1965.000000
    y...2556  OBJ.....      1.000000   UC..2556  -1965.000000
    y...2557  OBJ.....      1.000000   UC..2557  -1965.000000
    y...2558  OBJ.....      1.000000   UC..2558  -1965.000000
    y...2559  OBJ.....      1.000000   UC..2559  -1965.000000
    y...2560  OBJ.....      1.000000   UC..2560  -1965.000000
    y...2561  OBJ.....      1.000000   UC..2561  -1965.000000
    y...2562  OBJ.....      1.000000   UC..2562  -1965.000000
    y...2563  OBJ.....      1.000000   UC..2563  -1965.000000
    y...2564  OBJ.....      1.000000   UC..2564  -1965.000000
    y...2565  OBJ.....      1.000000   UC..2565  -1965.000000
    y...2566  OBJ.....      1.000000   UC..2566  -1965.000000
    y...2567  OBJ.....      1.000000   UC..2567  -1965.000000
    y...2568  OBJ.....      1.000000   UC..2568  -1965.000000
    y...2569  OBJ.....      1.000000   UC..2569  -1965.000000
    y...2570  OBJ.....      1.000000   UC..2570  -1965.000000
    y...2571  OBJ.....      1.000000   UC..2571  -1965.000000
    y...2572  OBJ.....      1.000000   UC..2572  -1965.000000
    y...2573  OBJ.....      1.000000   UC..2573  -1965.000000
    y...2574  OBJ.....      1.000000   UC..2574  -1965.000000
    y...2575  OBJ.....      1.000000   UC..2575  -1965.000000
    y...2576  OBJ.....      1.000000   UC..2576  -1965.000000
    y...2577  OBJ.....      1.000000   UC..2577  -1965.000000
    y...2578  OBJ.....      1.000000   UC..2578  -1965.000000
    y...2579  OBJ.....      1.000000   UC..2579  -1965.000000
    y...2580  OBJ.....      1.000000   UC..2580  -1965.000000
    y...2581  OBJ.....      1.000000   UC..2581  -1965.000000
    y...2582  OBJ.....      1.000000   UC..2582  -1965.000000
    y...2583  OBJ.....      1.000000   UC..2583  -1965.000000
    y...2584  OBJ.....      1.000000   UC..2584  -1965.000000
    y...2585  OBJ.....      1.000000   UC..2585  -1965.000000
    y...2586  OBJ.....      1.000000   UC..2586  -1965.000000
    y...2587  OBJ.....      1.000000   UC..2587  -1965.000000
    y...2588  OBJ.....      1.000000   UC..2588  -1965.000000
    y...2589  OBJ.....      1.000000   UC..2589  -1965.000000
    y...2590  OBJ.....      1.000000   UC..2590  -1965.000000
    y...2591  OBJ.....      1.000000   UC..2591  -1965.000000
    y...2592  OBJ.....      1.000000   UC..2592  -1965.000000
    y...2593  OBJ.....      1.000000   UC..2593  -1965.000000
    y...2594  OBJ.....      1.000000   UC..2594  -1965.000000
    y...2595  OBJ.....      1.000000   UC..2595  -1965.000000
    y...2596  OBJ.....      1.000000   UC..2596  -1965.000000
    y...2597  OBJ.....      1.000000   UC..2597  -1965.000000
    y...2598  OBJ.....      1.000000   UC..2598  -1965.000000
    y...2599  OBJ.....      1.000000   UC..2599  -1965.000000
    y...2600  OBJ.....      1.000000   UC..2600  -1965.000000
    y...2601  OBJ.....      1.000000   UC..2601  -1965.000000
    y...2602  OBJ.....      1.000000   UC..2602  -1965.000000
    y...2603  OBJ.....      1.000000   UC..2603  -1965.000000
    y...2604  OBJ.....      1.000000   UC..2604  -1965.000000
    y...2605  OBJ.....      1.000000   UC..2605  -1965.000000
    y...2606  OBJ.....      1.000000   UC..2606  -1965.000000
    y...2607  OBJ.....      1.000000   UC..2607  -1965.000000
    y...2608  OBJ.....      1.000000   UC..2608  -1965.000000
    y...2609  OBJ.....      1.000000   UC..2609  -1965.000000
    y...2610  OBJ.....      1.000000   UC..2610  -1965.000000
    y...2611  OBJ.....      1.000000   UC..2611  -1965.000000
    y...2612  OBJ.....      1.000000   UC..2612  -1965.000000
    y...2613  OBJ.....      1.000000   UC..2613  -1965.000000
    y...2614  OBJ.....      1.000000   UC..2614  -1965.000000
    y...2615  OBJ.....      1.000000   UC..2615  -1965.000000
    y...2616  OBJ.....      1.000000   UC..2616  -1965.000000
    y...2617  OBJ.....      1.000000   UC..2617  -1965.000000
    y...2618  OBJ.....      1.000000   UC..2618  -1965.000000
    y...2619  OBJ.....      1.000000   UC..2619  -1965.000000
    y...2620  OBJ.....      1.000000   UC..2620  -1965.000000
    y...2621  OBJ.....      1.000000   UC..2621  -1965.000000
    y...2622  OBJ.....      1.000000   UC..2622  -1965.000000
    y...2623  OBJ.....      1.000000   UC..2623  -1965.000000
    y...2624  OBJ.....      1.000000   UC..2624  -1965.000000
    y...2625  OBJ.....      1.000000   UC..2625  -1965.000000
    y...2626  OBJ.....      1.000000   UC..2626  -1965.000000
    y...2627  OBJ.....      1.000000   UC..2627  -1965.000000
    y...2628  OBJ.....      1.000000   UC..2628  -1965.000000
    y...2629  OBJ.....      1.000000   UC..2629  -1965.000000
    y...2630  OBJ.....      1.000000   UC..2630  -1965.000000
    y...2631  OBJ.....      1.000000   UC..2631  -1965.000000
    y...2632  OBJ.....      1.000000   UC..2632  -1965.000000
    y...2633  OBJ.....      1.000000   UC..2633  -1965.000000
    y...2634  OBJ.....      1.000000   UC..2634  -1965.000000
    y...2635  OBJ.....      1.000000   UC..2635  -1965.000000
    y...2636  OBJ.....      1.000000   UC..2636  -1965.000000
    y...2637  OBJ.....      1.000000   UC..2637  -1965.000000
    y...2638  OBJ.....      1.000000   UC..2638  -1965.000000
    y...2639  OBJ.....      1.000000   UC..2639  -1965.000000
    y...2640  OBJ.....      1.000000   UC..2640  -1965.000000
    y...2641  OBJ.....      1.000000   UC..2641  -1965.000000
    y...2642  OBJ.....      1.000000   UC..2642  -1965.000000
    y...2643  OBJ.....      1.000000   UC..2643  -1965.000000
    y...2644  OBJ.....      1.000000   UC..2644  -1965.000000
    y...2645  OBJ.....      1.000000   UC..2645  -1965.000000
    y...2646  OBJ.....      1.000000   UC..2646  -1965.000000
    y...2647  OBJ.....      1.000000   UC..2647  -1965.000000
    y...2648  OBJ.....      1.000000   UC..2648  -1965.000000
    y...2649  OBJ.....      1.000000   UC..2649  -1965.000000
    y...2650  OBJ.....      1.000000   UC..2650  -1965.000000
    y...2651  OBJ.....      1.000000   UC..2651  -1965.000000
    y...2652  OBJ.....      1.000000   UC..2652  -1965.000000
    y...2653  OBJ.....      1.000000   UC..2653  -1965.000000
    y...2654  OBJ.....      1.000000   UC..2654  -1965.000000
    y...2655  OBJ.....      1.000000   UC..2655  -1965.000000
    y...2656  OBJ.....      1.000000   UC..2656  -1965.000000
    y...2657  OBJ.....      1.000000   UC..2657  -1965.000000
    y...2658  OBJ.....      1.000000   UC..2658  -1965.000000
    y...2659  OBJ.....      1.000000   UC..2659  -1965.000000
    y...2660  OBJ.....      1.000000   UC..2660  -1965.000000
    y...2661  OBJ.....      1.000000   UC..2661  -1965.000000
    y...2662  OBJ.....      1.000000   UC..2662  -1965.000000
    y...2663  OBJ.....      1.000000   UC..2663  -1965.000000
    y...2664  OBJ.....      1.000000   UC..2664  -1965.000000
    y...2665  OBJ.....      1.000000   UC..2665  -1965.000000
    y...2666  OBJ.....      1.000000   UC..2666  -1965.000000
    y...2667  OBJ.....      1.000000   UC..2667  -1965.000000
    y...2668  OBJ.....      1.000000   UC..2668  -1965.000000
    y...2669  OBJ.....      1.000000   UC..2669  -1965.000000
    y...2670  OBJ.....      1.000000   UC..2670  -1965.000000
    y...2671  OBJ.....      1.000000   UC..2671  -1965.000000
    y...2672  OBJ.....      1.000000   UC..2672  -1965.000000
    y...2673  OBJ.....      1.000000   UC..2673  -1965.000000
    y...2674  OBJ.....      1.000000   UC..2674  -1965.000000
    y...2675  OBJ.....      1.000000   UC..2675  -1965.000000
    y...2676  OBJ.....      1.000000   UC..2676  -1965.000000
    y...2677  OBJ.....      1.000000   UC..2677  -1965.000000
    y...2678  OBJ.....      1.000000   UC..2678  -1965.000000
    y...2679  OBJ.....      1.000000   UC..2679  -1965.000000
    y...2680  OBJ.....      1.000000   UC..2680  -1965.000000
    y...2681  OBJ.....      1.000000   UC..2681  -1965.000000
    y...2682  OBJ.....      1.000000   UC..2682  -1965.000000
    y...2683  OBJ.....      1.000000   UC..2683  -1965.000000
    y...2684  OBJ.....      1.000000   UC..2684  -1965.000000
    y...2685  OBJ.....      1.000000   UC..2685  -1965.000000
    y...2686  OBJ.....      1.000000   UC..2686  -1965.000000
    y...2687  OBJ.....      1.000000   UC..2687  -1965.000000
    y...2688  OBJ.....      1.000000   UC..2688  -1965.000000
    y...2689  OBJ.....      1.000000   UC..2689  -1965.000000
    y...2690  OBJ.....      1.000000   UC..2690  -1965.000000
    y...2691  OBJ.....      1.000000   UC..2691  -1965.000000
    y...2692  OBJ.....      1.000000   UC..2692  -1965.000000
    y...2693  OBJ.....      1.000000   UC..2693  -1965.000000
    y...2694  OBJ.....      1.000000   UC..2694  -1965.000000
    y...2695  OBJ.....      1.000000   UC..2695  -1965.000000
    y...2696  OBJ.....      1.000000   UC..2696  -1965.000000
    y...2697  OBJ.....      1.000000   UC..2697  -1965.000000
    y...2698  OBJ.....      1.000000   UC..2698  -1965.000000
    y...2699  OBJ.....      1.000000   UC..2699  -1965.000000
    y...2700  OBJ.....      1.000000   UC..2700  -1965.000000
    y...2701  OBJ.....      1.000000   UC..2701  -1965.000000
    y...2702  OBJ.....      1.000000   UC..2702  -1965.000000
    y...2703  OBJ.....      1.000000   UC..2703  -1965.000000
    y...2704  OBJ.....      1.000000   UC..2704  -1965.000000
    y...2705  OBJ.....      1.000000   UC..2705  -1965.000000
    y...2706  OBJ.....      1.000000   UC..2706  -1965.000000
    y...2707  OBJ.....      1.000000   UC..2707  -1965.000000
    y...2708  OBJ.....      1.000000   UC..2708  -1965.000000
    y...2709  OBJ.....      1.000000   UC..2709  -1965.000000
    y...2710  OBJ.....      1.000000   UC..2710  -1965.000000
    y...2711  OBJ.....      1.000000   UC..2711  -1965.000000
    y...2712  OBJ.....      1.000000   UC..2712  -1965.000000
    y...2713  OBJ.....      1.000000   UC..2713  -1965.000000
    y...2714  OBJ.....      1.000000   UC..2714  -1965.000000
    y...2715  OBJ.....      1.000000   UC..2715  -1965.000000
    y...2716  OBJ.....      1.000000   UC..2716  -1965.000000
    y...2717  OBJ.....      1.000000   UC..2717  -1965.000000
    y...2718  OBJ.....      1.000000   UC..2718  -1965.000000
    y...2719  OBJ.....      1.000000   UC..2719  -1965.000000
    y...2720  OBJ.....      1.000000   UC..2720  -1965.000000
    y...2721  OBJ.....      1.000000   UC..2721  -1965.000000
    y...2722  OBJ.....      1.000000   UC..2722  -1965.000000
    y...2723  OBJ.....      1.000000   UC..2723  -1965.000000
    y...2724  OBJ.....      1.000000   UC..2724  -1965.000000
    y...2725  OBJ.....      1.000000   UC..2725  -1965.000000
    y...2726  OBJ.....      1.000000   UC..2726  -1965.000000
    y...2727  OBJ.....      1.000000   UC..2727  -1965.000000
    y...2728  OBJ.....      1.000000   UC..2728  -1965.000000
    y...2729  OBJ.....      1.000000   UC..2729  -1965.000000
    y...2730  OBJ.....      1.000000   UC..2730  -1965.000000
    y...2731  OBJ.....      1.000000   UC..2731  -1965.000000
    y...2732  OBJ.....      1.000000   UC..2732  -1965.000000
    y...2733  OBJ.....      1.000000   UC..2733  -1965.000000
    y...2734  OBJ.....      1.000000   UC..2734  -1965.000000
    y...2735  OBJ.....      1.000000   UC..2735  -1965.000000
    y...2736  OBJ.....      1.000000   UC..2736  -1965.000000
    y...2737  OBJ.....      1.000000   UC..2737  -1965.000000
    y...2738  OBJ.....      1.000000   UC..2738  -1965.000000
    y...2739  OBJ.....      1.000000   UC..2739  -1965.000000
    y...2740  OBJ.....      1.000000   UC..2740  -1965.000000
    y...2741  OBJ.....      1.000000   UC..2741  -1965.000000
    y...2742  OBJ.....      1.000000   UC..2742  -1965.000000
    y...2743  OBJ.....      1.000000   UC..2743  -1965.000000
    y...2744  OBJ.....      1.000000   UC..2744  -1965.000000
    y...2745  OBJ.....      1.000000   UC..2745  -1965.000000
    y...2746  OBJ.....      1.000000   UC..2746  -1965.000000
    y...2747  OBJ.....      1.000000   UC..2747  -1965.000000
    y...2748  OBJ.....      1.000000   UC..2748  -1965.000000
    y...2749  OBJ.....      1.000000   UC..2749  -1965.000000
    y...2750  OBJ.....      1.000000   UC..2750  -1965.000000
    y...2751  OBJ.....      1.000000   UC..2751  -1965.000000
    y...2752  OBJ.....      1.000000   UC..2752  -1965.000000
    y...2753  OBJ.....      1.000000   UC..2753  -1965.000000
    y...2754  OBJ.....      1.000000   UC..2754  -1965.000000
    y...2755  OBJ.....      1.000000   UC..2755  -1965.000000
    y...2756  OBJ.....      1.000000   UC..2756  -1965.000000
    y...2757  OBJ.....      1.000000   UC..2757  -1965.000000
    y...2758  OBJ.....      1.000000   UC..2758  -1965.000000
    y...2759  OBJ.....      1.000000   UC..2759  -1965.000000
    y...2760  OBJ.....      1.000000   UC..2760  -1965.000000
    y...2761  OBJ.....      1.000000   UC..2761  -1965.000000
    y...2762  OBJ.....      1.000000   UC..2762  -1965.000000
    y...2763  OBJ.....      1.000000   UC..2763  -1965.000000
    y...2764  OBJ.....      1.000000   UC..2764  -1965.000000
    y...2765  OBJ.....      1.000000   UC..2765  -1965.000000
    y...2766  OBJ.....      1.000000   UC..2766  -1965.000000
    y...2767  OBJ.....      1.000000   UC..2767  -1965.000000
    y...2768  OBJ.....      1.000000   UC..2768  -1965.000000
    y...2769  OBJ.....      1.000000   UC..2769  -1965.000000
    y...2770  OBJ.....      1.000000   UC..2770  -1965.000000
    y...2771  OBJ.....      1.000000   UC..2771  -1965.000000
    y...2772  OBJ.....      1.000000   UC..2772  -1965.000000
    y...2773  OBJ.....      1.000000   UC..2773  -1965.000000
    y...2774  OBJ.....      1.000000   UC..2774  -1965.000000
    y...2775  OBJ.....      1.000000   UC..2775  -1965.000000
    y...2776  OBJ.....      1.000000   UC..2776  -1965.000000
    y...2777  OBJ.....      1.000000   UC..2777  -1965.000000
    y...2778  OBJ.....      1.000000   UC..2778  -1965.000000
    y...2779  OBJ.....      1.000000   UC..2779  -1965.000000
    y...2780  OBJ.....      1.000000   UC..2780  -1965.000000
    y...2781  OBJ.....      1.000000   UC..2781  -1965.000000
    y...2782  OBJ.....      1.000000   UC..2782  -1965.000000
    y...2783  OBJ.....      1.000000   UC..2783  -1965.000000
    y...2784  OBJ.....      1.000000   UC..2784  -1965.000000
    y...2785  OBJ.....      1.000000   UC..2785  -1965.000000
    y...2786  OBJ.....      1.000000   UC..2786  -1965.000000
    y...2787  OBJ.....      1.000000   UC..2787  -1965.000000
    y...2788  OBJ.....      1.000000   UC..2788  -1965.000000
    y...2789  OBJ.....      1.000000   UC..2789  -1965.000000
    y...2790  OBJ.....      1.000000   UC..2790  -1965.000000
    y...2791  OBJ.....      1.000000   UC..2791  -1965.000000
    y...2792  OBJ.....      1.000000   UC..2792  -1965.000000
    y...2793  OBJ.....      1.000000   UC..2793  -1965.000000
    y...2794  OBJ.....      1.000000   UC..2794  -1965.000000
    y...2795  OBJ.....      1.000000   UC..2795  -1965.000000
    y...2796  OBJ.....      1.000000   UC..2796  -1965.000000
    y...2797  OBJ.....      1.000000   UC..2797  -1965.000000
    y...2798  OBJ.....      1.000000   UC..2798  -1965.000000
    y...2799  OBJ.....      1.000000   UC..2799  -1965.000000
    y...2800  OBJ.....      1.000000   UC..2800  -1965.000000
    y...2801  OBJ.....      1.000000   UC..2801  -1965.000000
    y...2802  OBJ.....      1.000000   UC..2802  -1965.000000
    y...2803  OBJ.....      1.000000   UC..2803  -1965.000000
    y...2804  OBJ.....      1.000000   UC..2804  -1965.000000
    y...2805  OBJ.....      1.000000   UC..2805  -1965.000000
    y...2806  OBJ.....      1.000000   UC..2806  -1965.000000
    y...2807  OBJ.....      1.000000   UC..2807  -1965.000000
    y...2808  OBJ.....      1.000000   UC..2808  -1965.000000
    y...2809  OBJ.....      1.000000   UC..2809  -1965.000000
    y...2810  OBJ.....      1.000000   UC..2810  -1965.000000
    y...2811  OBJ.....      1.000000   UC..2811  -1965.000000
    y...2812  OBJ.....      1.000000   UC..2812  -1965.000000
    y...2813  OBJ.....      1.000000   UC..2813  -1965.000000
    y...2814  OBJ.....      1.000000   UC..2814  -1965.000000
    y...2815  OBJ.....      1.000000   UC..2815  -1965.000000
    y...2816  OBJ.....      1.000000   UC..2816  -1965.000000
    y...2817  OBJ.....      1.000000   UC..2817  -1965.000000
    y...2818  OBJ.....      1.000000   UC..2818  -1965.000000
    y...2819  OBJ.....      1.000000   UC..2819  -1965.000000
    y...2820  OBJ.....      1.000000   UC..2820  -1965.000000
    y...2821  OBJ.....      1.000000   UC..2821  -1965.000000
    y...2822  OBJ.....      1.000000   UC..2822  -1965.000000
    y...2823  OBJ.....      1.000000   UC..2823  -1965.000000
    y...2824  OBJ.....      1.000000   UC..2824  -1965.000000
    y...2825  OBJ.....      1.000000   UC..2825  -1965.000000
    y...2826  OBJ.....      1.000000   UC..2826  -1965.000000
    y...2827  OBJ.....      1.000000   UC..2827  -1965.000000
    y...2828  OBJ.....      1.000000   UC..2828  -1965.000000
    y...2829  OBJ.....      1.000000   UC..2829  -1965.000000
    y...2830  OBJ.....      1.000000   UC..2830  -1965.000000
    y...2831  OBJ.....      1.000000   UC..2831  -1965.000000
    y...2832  OBJ.....      1.000000   UC..2832  -1965.000000
    y...2833  OBJ.....      1.000000   UC..2833  -1965.000000
    y...2834  OBJ.....      1.000000   UC..2834  -1965.000000
    y...2835  OBJ.....      1.000000   UC..2835  -1965.000000
    y...2836  OBJ.....      1.000000   UC..2836  -1965.000000
    y...2837  OBJ.....      1.000000   UC..2837  -1965.000000
    y...2838  OBJ.....      1.000000   UC..2838  -1965.000000
    y...2839  OBJ.....      1.000000   UC..2839  -1965.000000
    y...2840  OBJ.....      1.000000   UC..2840  -1965.000000
    y...2841  OBJ.....      1.000000   UC..2841  -1965.000000
    y...2842  OBJ.....      1.000000   UC..2842  -1965.000000
    y...2843  OBJ.....      1.000000   UC..2843  -1965.000000
    y...2844  OBJ.....      1.000000   UC..2844  -1965.000000
    y...2845  OBJ.....      1.000000   UC..2845  -1965.000000
    y...2846  OBJ.....      1.000000   UC..2846  -1965.000000
    y...2847  OBJ.....      1.000000   UC..2847  -1965.000000
    y...2848  OBJ.....      1.000000   UC..2848  -1965.000000
    y...2849  OBJ.....      1.000000   UC..2849  -1965.000000
    y...2850  OBJ.....      1.000000   UC..2850  -1965.000000
    y...2851  OBJ.....      1.000000   UC..2851  -1965.000000
    y...2852  OBJ.....      1.000000   UC..2852  -1965.000000
    y...2853  OBJ.....      1.000000   UC..2853  -1965.000000
    y...2854  OBJ.....      1.000000   UC..2854  -1965.000000
    y...2855  OBJ.....      1.000000   UC..2855  -1965.000000
    y...2856  OBJ.....      1.000000   UC..2856  -1965.000000
    y...2857  OBJ.....      1.000000   UC..2857  -1965.000000
    y...2858  OBJ.....      1.000000   UC..2858  -1965.000000
    y...2859  OBJ.....      1.000000   UC..2859  -1965.000000
    y...2860  OBJ.....      1.000000   UC..2860  -1965.000000
    y...2861  OBJ.....      1.000000   UC..2861  -1965.000000
    y...2862  OBJ.....      1.000000   UC..2862  -1965.000000
    y...2863  OBJ.....      1.000000   UC..2863  -1965.000000
    y...2864  OBJ.....      1.000000   UC..2864  -1965.000000
    y...2865  OBJ.....      1.000000   UC..2865  -1965.000000
    y...2866  OBJ.....      1.000000   UC..2866  -1965.000000
    y...2867  OBJ.....      1.000000   UC..2867  -1965.000000
    y...2868  OBJ.....      1.000000   UC..2868  -1965.000000
    y...2869  OBJ.....      1.000000   UC..2869  -1965.000000
    y...2870  OBJ.....      1.000000   UC..2870  -1965.000000
    y...2871  OBJ.....      1.000000   UC..2871  -1965.000000
    y...2872  OBJ.....      1.000000   UC..2872  -1965.000000
    y...2873  OBJ.....      1.000000   UC..2873  -1965.000000
    y...2874  OBJ.....      1.000000   UC..2874  -1965.000000
    y...2875  OBJ.....      1.000000   UC..2875  -1965.000000
    y...2876  OBJ.....      1.000000   UC..2876  -1965.000000
    y...2877  OBJ.....      1.000000   UC..2877  -1965.000000
    y...2878  OBJ.....      1.000000   UC..2878  -1965.000000
    y...2879  OBJ.....      1.000000   UC..2879  -1965.000000
    y...2880  OBJ.....      1.000000   UC..2880  -1965.000000
    y...2881  OBJ.....      1.000000   UC..2881  -1965.000000
    y...2882  OBJ.....      1.000000   UC..2882  -1965.000000
    y...2883  OBJ.....      1.000000   UC..2883  -1965.000000
    y...2884  OBJ.....      1.000000   UC..2884  -1965.000000
    y...2885  OBJ.....      1.000000   UC..2885  -1965.000000
    y...2886  OBJ.....      1.000000   UC..2886  -1965.000000
    y...2887  OBJ.....      1.000000   UC..2887  -1965.000000
    y...2888  OBJ.....      1.000000   UC..2888  -1965.000000
    y...2889  OBJ.....      1.000000   UC..2889  -1965.000000
    y...2890  OBJ.....      1.000000   UC..2890  -1965.000000
    y...2891  OBJ.....      1.000000   UC..2891  -1965.000000
    y...2892  OBJ.....      1.000000   UC..2892  -1965.000000
    y...2893  OBJ.....      1.000000   UC..2893  -1965.000000
    y...2894  OBJ.....      1.000000   UC..2894  -1965.000000
    y...2895  OBJ.....      1.000000   UC..2895  -1965.000000
    y...2896  OBJ.....      1.000000   UC..2896  -1965.000000
    y...2897  OBJ.....      1.000000   UC..2897  -1965.000000
    y...2898  OBJ.....      1.000000   UC..2898  -1965.000000
    y...2899  OBJ.....      1.000000   UC..2899  -1965.000000
    y...2900  OBJ.....      1.000000   UC..2900  -1965.000000
    y...2901  OBJ.....      1.000000   UC..2901  -1965.000000
    y...2902  OBJ.....      1.000000   UC..2902  -1965.000000
    y...2903  OBJ.....      1.000000   UC..2903  -1965.000000
    y...2904  OBJ.....      1.000000   UC..2904  -1965.000000
    y...2905  OBJ.....      1.000000   UC..2905  -1965.000000
    y...2906  OBJ.....      1.000000   UC..2906  -1965.000000
    y...2907  OBJ.....      1.000000   UC..2907  -1965.000000
    y...2908  OBJ.....      1.000000   UC..2908  -1965.000000
    y...2909  OBJ.....      1.000000   UC..2909  -1965.000000
    y...2910  OBJ.....      1.000000   UC..2910  -1965.000000
    y...2911  OBJ.....      1.000000   UC..2911  -1965.000000
    y...2912  OBJ.....      1.000000   UC..2912  -1965.000000
    y...2913  OBJ.....      1.000000   UC..2913  -1965.000000
    y...2914  OBJ.....      1.000000   UC..2914  -1965.000000
    y...2915  OBJ.....      1.000000   UC..2915  -1965.000000
    y...2916  OBJ.....      1.000000   UC..2916  -1965.000000
    y...2917  OBJ.....      1.000000   UC..2917  -1965.000000
    y...2918  OBJ.....      1.000000   UC..2918  -1965.000000
    y...2919  OBJ.....      1.000000   UC..2919  -1965.000000
    y...2920  OBJ.....      1.000000   UC..2920  -1965.000000
    y...2921  OBJ.....      1.000000   UC..2921  -1965.000000
    y...2922  OBJ.....      1.000000   UC..2922  -1965.000000
    y...2923  OBJ.....      1.000000   UC..2923  -1965.000000
    y...2924  OBJ.....      1.000000   UC..2924  -1965.000000
    y...2925  OBJ.....      1.000000   UC..2925  -1965.000000
    y...2926  OBJ.....      1.000000   UC..2926  -1965.000000
    y...2927  OBJ.....      1.000000   UC..2927  -1965.000000
    y...2928  OBJ.....      1.000000   UC..2928  -1965.000000
    y...2929  OBJ.....      1.000000   UC..2929  -1965.000000
    y...2930  OBJ.....      1.000000   UC..2930  -1965.000000
    y...2931  OBJ.....      1.000000   UC..2931  -1965.000000
    y...2932  OBJ.....      1.000000   UC..2932  -1965.000000
    y...2933  OBJ.....      1.000000   UC..2933  -1965.000000
    y...2934  OBJ.....      1.000000   UC..2934  -1965.000000
    y...2935  OBJ.....      1.000000   UC..2935  -1965.000000
    y...2936  OBJ.....      1.000000   UC..2936  -1965.000000
    y...2937  OBJ.....      1.000000   UC..2937  -1965.000000
    y...2938  OBJ.....      1.000000   UC..2938  -1965.000000
    y...2939  OBJ.....      1.000000   UC..2939  -1965.000000
    y...2940  OBJ.....      1.000000   UC..2940  -1965.000000
    y...2941  OBJ.....      1.000000   UC..2941  -1965.000000
    y...2942  OBJ.....      1.000000   UC..2942  -1965.000000
    y...2943  OBJ.....      1.000000   UC..2943  -1965.000000
    y...2944  OBJ.....      1.000000   UC..2944  -1965.000000
    y...2945  OBJ.....      1.000000   UC..2945  -1965.000000
    y...2946  OBJ.....      1.000000   UC..2946  -1965.000000
    y...2947  OBJ.....      1.000000   UC..2947  -1965.000000
    y...2948  OBJ.....      1.000000   UC..2948  -1965.000000
    y...2949  OBJ.....      1.000000   UC..2949  -1965.000000
    y...2950  OBJ.....      1.000000   UC..2950  -1965.000000
    y...2951  OBJ.....      1.000000   UC..2951  -1965.000000
    y...2952  OBJ.....      1.000000   UC..2952  -1965.000000
    y...2953  OBJ.....      1.000000   UC..2953  -1965.000000
    y...2954  OBJ.....      1.000000   UC..2954  -1965.000000
    y...2955  OBJ.....      1.000000   UC..2955  -1965.000000
    y...2956  OBJ.....      1.000000   UC..2956  -1965.000000
    y...2957  OBJ.....      1.000000   UC..2957  -1965.000000
    y...2958  OBJ.....      1.000000   UC..2958  -1965.000000
    y...2959  OBJ.....      1.000000   UC..2959  -1965.000000
    y...2960  OBJ.....      1.000000   UC..2960  -1965.000000
    y...2961  OBJ.....      1.000000   UC..2961  -1965.000000
    y...2962  OBJ.....      1.000000   UC..2962  -1965.000000
    y...2963  OBJ.....      1.000000   UC..2963  -1965.000000
    y...2964  OBJ.....      1.000000   UC..2964  -1965.000000
    y...2965  OBJ.....      1.000000   UC..2965  -1965.000000
    y...2966  OBJ.....      1.000000   UC..2966  -1965.000000
    y...2967  OBJ.....      1.000000   UC..2967  -1965.000000
    y...2968  OBJ.....      1.000000   UC..2968  -1965.000000
    y...2969  OBJ.....      1.000000   UC..2969  -1965.000000
    y...2970  OBJ.....      1.000000   UC..2970  -1965.000000
    y...2971  OBJ.....      1.000000   UC..2971  -1965.000000
    y...2972  OBJ.....      1.000000   UC..2972  -1965.000000
    y...2973  OBJ.....      1.000000   UC..2973  -1965.000000
    y...2974  OBJ.....      1.000000   UC..2974  -1965.000000
    y...2975  OBJ.....      1.000000   UC..2975  -1965.000000
    y...2976  OBJ.....      1.000000   UC..2976  -1965.000000
    y...2977  OBJ.....      1.000000   UC..2977  -1965.000000
    y...2978  OBJ.....      1.000000   UC..2978  -1965.000000
    y...2979  OBJ.....      1.000000   UC..2979  -1965.000000
    y...2980  OBJ.....      1.000000   UC..2980  -1965.000000
    y...2981  OBJ.....      1.000000   UC..2981  -1965.000000
    y...2982  OBJ.....      1.000000   UC..2982  -1965.000000
    y...2983  OBJ.....      1.000000   UC..2983  -1965.000000
    y...2984  OBJ.....      1.000000   UC..2984  -1965.000000
    y...2985  OBJ.....      1.000000   UC..2985  -1965.000000
    y...2986  OBJ.....      1.000000   UC..2986  -1965.000000
    y...2987  OBJ.....      1.000000   UC..2987  -1965.000000
    y...2988  OBJ.....      1.000000   UC..2988  -1965.000000
RHS
    RHS00001  CNS..001   1359.000000   CNS..002    326.000000
    RHS00001  CNS..003    177.000000   CNS..004     95.000000
    RHS00001  CNS..005      6.000000   CNS..006      2.000000
    RHS00001  CNS..454  -1965.000000
BOUNDS
 UP BOUND001  x...0001   1965.000000
 UP BOUND001  x...0002   1965.000000
 UP BOUND001  x...0003   1965.000000
 UP BOUND001  x...0004   1965.000000
 UP BOUND001  x...0005   1965.000000
 UP BOUND001  x...0006   1965.000000
 UP BOUND001  x...0007   1965.000000
 UP BOUND001  x...0008   1965.000000
 UP BOUND001  x...0009   1965.000000
 UP BOUND001  x...0010   1965.000000
 UP BOUND001  x...0011   1965.000000
 UP BOUND001  x...0012   1965.000000
 UP BOUND001  x...0013   1965.000000
 UP BOUND001  x...0014   1965.000000
 UP BOUND001  x...0015   1965.000000
 UP BOUND001  x...0016   1965.000000
 UP BOUND001  x...0017   1965.000000
 UP BOUND001  x...0018   1965.000000
 UP BOUND001  x...0019   1965.000000
 UP BOUND001  x...0020   1965.000000
 UP BOUND001  x...0021   1965.000000
 UP BOUND001  x...0022   1965.000000
 UP BOUND001  x...0023   1965.000000
 UP BOUND001  x...0024   1965.000000
 UP BOUND001  x...0025   1965.000000
 UP BOUND001  x...0026   1965.000000
 UP BOUND001  x...0027   1965.000000
 UP BOUND001  x...0028   1965.000000
 UP BOUND001  x...0029   1965.000000
 UP BOUND001  x...0030   1965.000000
 UP BOUND001  x...0031   1965.000000
 UP BOUND001  x...0032   1965.000000
 UP BOUND001  x...0033   1965.000000
 UP BOUND001  x...0034   1965.000000
 UP BOUND001  x...0035   1965.000000
 UP BOUND001  x...0036   1965.000000
 UP BOUND001  x...0037   1965.000000
 UP BOUND001  x...0038   1965.000000
 UP BOUND001  x...0039   1965.000000
 UP BOUND001  x...0040   1965.000000
 UP BOUND001  x...0041   1965.000000
 UP BOUND001  x...0042   1965.000000
 UP BOUND001  x...0043   1965.000000
 UP BOUND001  x...0044   1965.000000
 UP BOUND001  x...0045   1965.000000
 UP BOUND001  x...0046   1965.000000
 UP BOUND001  x...0047   1965.000000
 UP BOUND001  x...0048   1965.000000
 UP BOUND001  x...0049   1965.000000
 UP BOUND001  x...0050   1965.000000
 UP BOUND001  x...0051   1965.000000
 UP BOUND001  x...0052   1965.000000
 UP BOUND001  x...0053   1965.000000
 UP BOUND001  x...0054   1965.000000
 UP BOUND001  x...0055   1965.000000
 UP BOUND001  x...0056   1965.000000
 UP BOUND001  x...0057   1965.000000
 UP BOUND001  x...0058   1965.000000
 UP BOUND001  x...0059   1965.000000
 UP BOUND001  x...0060   1965.000000
 UP BOUND001  x...0061   1965.000000
 UP BOUND001  x...0062   1965.000000
 UP BOUND001  x...0063   1965.000000
 UP BOUND001  x...0064   1965.000000
 UP BOUND001  x...0065   1965.000000
 UP BOUND001  x...0066   1965.000000
 UP BOUND001  x...0067   1965.000000
 UP BOUND001  x...0068   1965.000000
 UP BOUND001  x...0069   1965.000000
 UP BOUND001  x...0070   1965.000000
 UP BOUND001  x...0071   1965.000000
 UP BOUND001  x...0072   1965.000000
 UP BOUND001  x...0073   1965.000000
 UP BOUND001  x...0074   1965.000000
 UP BOUND001  x...0075   1965.000000
 UP BOUND001  x...0076   1965.000000
 UP BOUND001  x...0077   1965.000000
 UP BOUND001  x...0078   1965.000000
 UP BOUND001  x...0079   1965.000000
 UP BOUND001  x...0080   1965.000000
 UP BOUND001  x...0081   1965.000000
 UP BOUND001  x...0082   1965.000000
 UP BOUND001  x...0083   1965.000000
 UP BOUND001  x...0084   1965.000000
 UP BOUND001  x...0085   1965.000000
 UP BOUND001  x...0086   1965.000000
 UP BOUND001  x...0087   1965.000000
 UP BOUND001  x...0088   1965.000000
 UP BOUND001  x...0089   1965.000000
 UP BOUND001  x...0090   1965.000000
 UP BOUND001  x...0091   1965.000000
 UP BOUND001  x...0092   1965.000000
 UP BOUND001  x...0093   1965.000000
 UP BOUND001  x...0094   1965.000000
 UP BOUND001  x...0095   1965.000000
 UP BOUND001  x...0096   1965.000000
 UP BOUND001  x...0097   1965.000000
 UP BOUND001  x...0098   1965.000000
 UP BOUND001  x...0099   1965.000000
 UP BOUND001  x...0100   1965.000000
 UP BOUND001  x...0101   1965.000000
 UP BOUND001  x...0102   1965.000000
 UP BOUND001  x...0103   1965.000000
 UP BOUND001  x...0104   1965.000000
 UP BOUND001  x...0105   1965.000000
 UP BOUND001  x...0106   1965.000000
 UP BOUND001  x...0107   1965.000000
 UP BOUND001  x...0108   1965.000000
 UP BOUND001  x...0109   1965.000000
 UP BOUND001  x...0110   1965.000000
 UP BOUND001  x...0111   1965.000000
 UP BOUND001  x...0112   1965.000000
 UP BOUND001  x...0113   1965.000000
 UP BOUND001  x...0114   1965.000000
 UP BOUND001  x...0115   1965.000000
 UP BOUND001  x...0116   1965.000000
 UP BOUND001  x...0117   1965.000000
 UP BOUND001  x...0118   1965.000000
 UP BOUND001  x...0119   1965.000000
 UP BOUND001  x...0120   1965.000000
 UP BOUND001  x...0121   1965.000000
 UP BOUND001  x...0122   1965.000000
 UP BOUND001  x...0123   1965.000000
 UP BOUND001  x...0124   1965.000000
 UP BOUND001  x...0125   1965.000000
 UP BOUND001  x...0126   1965.000000
 UP BOUND001  x...0127   1965.000000
 UP BOUND001  x...0128   1965.000000
 UP BOUND001  x...0129   1965.000000
 UP BOUND001  x...0130   1965.000000
 UP BOUND001  x...0131   1965.000000
 UP BOUND001  x...0132   1965.000000
 UP BOUND001  x...0133   1965.000000
 UP BOUND001  x...0134   1965.000000
 UP BOUND001  x...0135   1965.000000
 UP BOUND001  x...0136   1965.000000
 UP BOUND001  x...0137   1965.000000
 UP BOUND001  x...0138   1965.000000
 UP BOUND001  x...0139   1965.000000
 UP BOUND001  x...0140   1965.000000
 UP BOUND001  x...0141   1965.000000
 UP BOUND001  x...0142   1965.000000
 UP BOUND001  x...0143   1965.000000
 UP BOUND001  x...0144   1965.000000
 UP BOUND001  x...0145   1965.000000
 UP BOUND001  x...0146   1965.000000
 UP BOUND001  x...0147   1965.000000
 UP BOUND001  x...0148   1965.000000
 UP BOUND001  x...0149   1965.000000
 UP BOUND001  x...0150   1965.000000
 UP BOUND001  x...0151   1965.000000
 UP BOUND001  x...0152   1965.000000
 UP BOUND001  x...0153   1965.000000
 UP BOUND001  x...0154   1965.000000
 UP BOUND001  x...0155   1965.000000
 UP BOUND001  x...0156   1965.000000
 UP BOUND001  x...0157   1965.000000
 UP BOUND001  x...0158   1965.000000
 UP BOUND001  x...0159   1965.000000
 UP BOUND001  x...0160   1965.000000
 UP BOUND001  x...0161   1965.000000
 UP BOUND001  x...0162   1965.000000
 UP BOUND001  x...0163   1965.000000
 UP BOUND001  x...0164   1965.000000
 UP BOUND001  x...0165   1965.000000
 UP BOUND001  x...0166   1965.000000
 UP BOUND001  x...0167   1965.000000
 UP BOUND001  x...0168   1965.000000
 UP BOUND001  x...0169   1965.000000
 UP BOUND001  x...0170   1965.000000
 UP BOUND001  x...0171   1965.000000
 UP BOUND001  x...0172   1965.000000
 UP BOUND001  x...0173   1965.000000
 UP BOUND001  x...0174   1965.000000
 UP BOUND001  x...0175   1965.000000
 UP BOUND001  x...0176   1965.000000
 UP BOUND001  x...0177   1965.000000
 UP BOUND001  x...0178   1965.000000
 UP BOUND001  x...0179   1965.000000
 UP BOUND001  x...0180   1965.000000
 UP BOUND001  x...0181   1965.000000
 UP BOUND001  x...0182   1965.000000
 UP BOUND001  x...0183   1965.000000
 UP BOUND001  x...0184   1965.000000
 UP BOUND001  x...0185   1965.000000
 UP BOUND001  x...0186   1965.000000
 UP BOUND001  x...0187   1965.000000
 UP BOUND001  x...0188   1965.000000
 UP BOUND001  x...0189   1965.000000
 UP BOUND001  x...0190   1965.000000
 UP BOUND001  x...0191   1965.000000
 UP BOUND001  x...0192   1965.000000
 UP BOUND001  x...0193   1965.000000
 UP BOUND001  x...0194   1965.000000
 UP BOUND001  x...0195   1965.000000
 UP BOUND001  x...0196   1965.000000
 UP BOUND001  x...0197   1965.000000
 UP BOUND001  x...0198   1965.000000
 UP BOUND001  x...0199   1965.000000
 UP BOUND001  x...0200   1965.000000
 UP BOUND001  x...0201   1965.000000
 UP BOUND001  x...0202   1965.000000
 UP BOUND001  x...0203   1965.000000
 UP BOUND001  x...0204   1965.000000
 UP BOUND001  x...0205   1965.000000
 UP BOUND001  x...0206   1965.000000
 UP BOUND001  x...0207   1965.000000
 UP BOUND001  x...0208   1965.000000
 UP BOUND001  x...0209   1965.000000
 UP BOUND001  x...0210   1965.000000
 UP BOUND001  x...0211   1965.000000
 UP BOUND001  x...0212   1965.000000
 UP BOUND001  x...0213   1965.000000
 UP BOUND001  x...0214   1965.000000
 UP BOUND001  x...0215   1965.000000
 UP BOUND001  x...0216   1965.000000
 UP BOUND001  x...0217   1965.000000
 UP BOUND001  x...0218   1965.000000
 UP BOUND001  x...0219   1965.000000
 UP BOUND001  x...0220   1965.000000
 UP BOUND001  x...0221   1965.000000
 UP BOUND001  x...0222   1965.000000
 UP BOUND001  x...0223   1965.000000
 UP BOUND001  x...0224   1965.000000
 UP BOUND001  x...0225   1965.000000
 UP BOUND001  x...0226   1965.000000
 UP BOUND001  x...0227   1965.000000
 UP BOUND001  x...0228   1965.000000
 UP BOUND001  x...0229   1965.000000
 UP BOUND001  x...0230   1965.000000
 UP BOUND001  x...0231   1965.000000
 UP BOUND001  x...0232   1965.000000
 UP BOUND001  x...0233   1965.000000
 UP BOUND001  x...0234   1965.000000
 UP BOUND001  x...0235   1965.000000
 UP BOUND001  x...0236   1965.000000
 UP BOUND001  x...0237   1965.000000
 UP BOUND001  x...0238   1965.000000
 UP BOUND001  x...0239   1965.000000
 UP BOUND001  x...0240   1965.000000
 UP BOUND001  x...0241   1965.000000
 UP BOUND001  x...0242   1965.000000
 UP BOUND001  x...0243   1965.000000
 UP BOUND001  x...0244   1965.000000
 UP BOUND001  x...0245   1965.000000
 UP BOUND001  x...0246   1965.000000
 UP BOUND001  x...0247   1965.000000
 UP BOUND001  x...0248   1965.000000
 UP BOUND001  x...0249   1965.000000
 UP BOUND001  x...0250   1965.000000
 UP BOUND001  x...0251   1965.000000
 UP BOUND001  x...0252   1965.000000
 UP BOUND001  x...0253   1965.000000
 UP BOUND001  x...0254   1965.000000
 UP BOUND001  x...0255   1965.000000
 UP BOUND001  x...0256   1965.000000
 UP BOUND001  x...0257   1965.000000
 UP BOUND001  x...0258   1965.000000
 UP BOUND001  x...0259   1965.000000
 UP BOUND001  x...0260   1965.000000
 UP BOUND001  x...0261   1965.000000
 UP BOUND001  x...0262   1965.000000
 UP BOUND001  x...0263   1965.000000
 UP BOUND001  x...0264   1965.000000
 UP BOUND001  x...0265   1965.000000
 UP BOUND001  x...0266   1965.000000
 UP BOUND001  x...0267   1965.000000
 UP BOUND001  x...0268   1965.000000
 UP BOUND001  x...0269   1965.000000
 UP BOUND001  x...0270   1965.000000
 UP BOUND001  x...0271   1965.000000
 UP BOUND001  x...0272   1965.000000
 UP BOUND001  x...0273   1965.000000
 UP BOUND001  x...0274   1965.000000
 UP BOUND001  x...0275   1965.000000
 UP BOUND001  x...0276   1965.000000
 UP BOUND001  x...0277   1965.000000
 UP BOUND001  x...0278   1965.000000
 UP BOUND001  x...0279   1965.000000
 UP BOUND001  x...0280   1965.000000
 UP BOUND001  x...0281   1965.000000
 UP BOUND001  x...0282   1965.000000
 UP BOUND001  x...0283   1965.000000
 UP BOUND001  x...0284   1965.000000
 UP BOUND001  x...0285   1965.000000
 UP BOUND001  x...0286   1965.000000
 UP BOUND001  x...0287   1965.000000
 UP BOUND001  x...0288   1965.000000
 UP BOUND001  x...0289   1965.000000
 UP BOUND001  x...0290   1965.000000
 UP BOUND001  x...0291   1965.000000
 UP BOUND001  x...0292   1965.000000
 UP BOUND001  x...0293   1965.000000
 UP BOUND001  x...0294   1965.000000
 UP BOUND001  x...0295   1965.000000
 UP BOUND001  x...0296   1965.000000
 UP BOUND001  x...0297   1965.000000
 UP BOUND001  x...0298   1965.000000
 UP BOUND001  x...0299   1965.000000
 UP BOUND001  x...0300   1965.000000
 UP BOUND001  x...0301   1965.000000
 UP BOUND001  x...0302   1965.000000
 UP BOUND001  x...0303   1965.000000
 UP BOUND001  x...0304   1965.000000
 UP BOUND001  x...0305   1965.000000
 UP BOUND001  x...0306   1965.000000
 UP BOUND001  x...0307   1965.000000
 UP BOUND001  x...0308   1965.000000
 UP BOUND001  x...0309   1965.000000
 UP BOUND001  x...0310   1965.000000
 UP BOUND001  x...0311   1965.000000
 UP BOUND001  x...0312   1965.000000
 UP BOUND001  x...0313   1965.000000
 UP BOUND001  x...0314   1965.000000
 UP BOUND001  x...0315   1965.000000
 UP BOUND001  x...0316   1965.000000
 UP BOUND001  x...0317   1965.000000
 UP BOUND001  x...0318   1965.000000
 UP BOUND001  x...0319   1965.000000
 UP BOUND001  x...0320   1965.000000
 UP BOUND001  x...0321   1965.000000
 UP BOUND001  x...0322   1965.000000
 UP BOUND001  x...0323   1965.000000
 UP BOUND001  x...0324   1965.000000
 UP BOUND001  x...0325   1965.000000
 UP BOUND001  x...0326   1965.000000
 UP BOUND001  x...0327   1965.000000
 UP BOUND001  x...0328   1965.000000
 UP BOUND001  x...0329   1965.000000
 UP BOUND001  x...0330   1965.000000
 UP BOUND001  x...0331   1965.000000
 UP BOUND001  x...0332   1965.000000
 UP BOUND001  x...0333   1965.000000
 UP BOUND001  x...0334   1965.000000
 UP BOUND001  x...0335   1965.000000
 UP BOUND001  x...0336   1965.000000
 UP BOUND001  x...0337   1965.000000
 UP BOUND001  x...0338   1965.000000
 UP BOUND001  x...0339   1965.000000
 UP BOUND001  x...0340   1965.000000
 UP BOUND001  x...0341   1965.000000
 UP BOUND001  x...0342   1965.000000
 UP BOUND001  x...0343   1965.000000
 UP BOUND001  x...0344   1965.000000
 UP BOUND001  x...0345   1965.000000
 UP BOUND001  x...0346   1965.000000
 UP BOUND001  x...0347   1965.000000
 UP BOUND001  x...0348   1965.000000
 UP BOUND001  x...0349   1965.000000
 UP BOUND001  x...0350   1965.000000
 UP BOUND001  x...0351   1965.000000
 UP BOUND001  x...0352   1965.000000
 UP BOUND001  x...0353   1965.000000
 UP BOUND001  x...0354   1965.000000
 UP BOUND001  x...0355   1965.000000
 UP BOUND001  x...0356   1965.000000
 UP BOUND001  x...0357   1965.000000
 UP BOUND001  x...0358   1965.000000
 UP BOUND001  x...0359   1965.000000
 UP BOUND001  x...0360   1965.000000
 UP BOUND001  x...0361   1965.000000
 UP BOUND001  x...0362   1965.000000
 UP BOUND001  x...0363   1965.000000
 UP BOUND001  x...0364   1965.000000
 UP BOUND001  x...0365   1965.000000
 UP BOUND001  x...0366   1965.000000
 UP BOUND001  x...0367   1965.000000
 UP BOUND001  x...0368   1965.000000
 UP BOUND001  x...0369   1965.000000
 UP BOUND001  x...0370   1965.000000
 UP BOUND001  x...0371   1965.000000
 UP BOUND001  x...0372   1965.000000
 UP BOUND001  x...0373   1965.000000
 UP BOUND001  x...0374   1965.000000
 UP BOUND001  x...0375   1965.000000
 UP BOUND001  x...0376   1965.000000
 UP BOUND001  x...0377   1965.000000
 UP BOUND001  x...0378   1965.000000
 UP BOUND001  x...0379   1965.000000
 UP BOUND001  x...0380   1965.000000
 UP BOUND001  x...0381   1965.000000
 UP BOUND001  x...0382   1965.000000
 UP BOUND001  x...0383   1965.000000
 UP BOUND001  x...0384   1965.000000
 UP BOUND001  x...0385   1965.000000
 UP BOUND001  x...0386   1965.000000
 UP BOUND001  x...0387   1965.000000
 UP BOUND001  x...0388   1965.000000
 UP BOUND001  x...0389   1965.000000
 UP BOUND001  x...0390   1965.000000
 UP BOUND001  x...0391   1965.000000
 UP BOUND001  x...0392   1965.000000
 UP BOUND001  x...0393   1965.000000
 UP BOUND001  x...0394   1965.000000
 UP BOUND001  x...0395   1965.000000
 UP BOUND001  x...0396   1965.000000
 UP BOUND001  x...0397   1965.000000
 UP BOUND001  x...0398   1965.000000
 UP BOUND001  x...0399   1965.000000
 UP BOUND001  x...0400   1965.000000
 UP BOUND001  x...0401   1965.000000
 UP BOUND001  x...0402   1965.000000
 UP BOUND001  x...0403   1965.000000
 UP BOUND001  x...0404   1965.000000
 UP BOUND001  x...0405   1965.000000
 UP BOUND001  x...0406   1965.000000
 UP BOUND001  x...0407   1965.000000
 UP BOUND001  x...0408   1965.000000
 UP BOUND001  x...0409   1965.000000
 UP BOUND001  x...0410   1965.000000
 UP BOUND001  x...0411   1965.000000
 UP BOUND001  x...0412   1965.000000
 UP BOUND001  x...0413   1965.000000
 UP BOUND001  x...0414   1965.000000
 UP BOUND001  x...0415   1965.000000
 UP BOUND001  x...0416   1965.000000
 UP BOUND001  x...0417   1965.000000
 UP BOUND001  x...0418   1965.000000
 UP BOUND001  x...0419   1965.000000
 UP BOUND001  x...0420   1965.000000
 UP BOUND001  x...0421   1965.000000
 UP BOUND001  x...0422   1965.000000
 UP BOUND001  x...0423   1965.000000
 UP BOUND001  x...0424   1965.000000
 UP BOUND001  x...0425   1965.000000
 UP BOUND001  x...0426   1965.000000
 UP BOUND001  x...0427   1965.000000
 UP BOUND001  x...0428   1965.000000
 UP BOUND001  x...0429   1965.000000
 UP BOUND001  x...0430   1965.000000
 UP BOUND001  x...0431   1965.000000
 UP BOUND001  x...0432   1965.000000
 UP BOUND001  x...0433   1965.000000
 UP BOUND001  x...0434   1965.000000
 UP BOUND001  x...0435   1965.000000
 UP BOUND001  x...0436   1965.000000
 UP BOUND001  x...0437   1965.000000
 UP BOUND001  x...0438   1965.000000
 UP BOUND001  x...0439   1965.000000
 UP BOUND001  x...0440   1965.000000
 UP BOUND001  x...0441   1965.000000
 UP BOUND001  x...0442   1965.000000
 UP BOUND001  x...0443   1965.000000
 UP BOUND001  x...0444   1965.000000
 UP BOUND001  x...0445   1965.000000
 UP BOUND001  x...0446   1965.000000
 UP BOUND001  x...0447   1965.000000
 UP BOUND001  x...0448   1965.000000
 UP BOUND001  x...0449   1965.000000
 UP BOUND001  x...0450   1965.000000
 UP BOUND001  x...0451   1965.000000
 UP BOUND001  x...0452   1965.000000
 UP BOUND001  x...0453   1965.000000
 UP BOUND001  x...0454   1965.000000
 UP BOUND001  x...0455   1965.000000
 UP BOUND001  x...0456   1965.000000
 UP BOUND001  x...0457   1965.000000
 UP BOUND001  x...0458   1965.000000
 UP BOUND001  x...0459   1965.000000
 UP BOUND001  x...0460   1965.000000
 UP BOUND001  x...0461   1965.000000
 UP BOUND001  x...0462   1965.000000
 UP BOUND001  x...0463   1965.000000
 UP BOUND001  x...0464   1965.000000
 UP BOUND001  x...0465   1965.000000
 UP BOUND001  x...0466   1965.000000
 UP BOUND001  x...0467   1965.000000
 UP BOUND001  x...0468   1965.000000
 UP BOUND001  x...0469   1965.000000
 UP BOUND001  x...0470   1965.000000
 UP BOUND001  x...0471   1965.000000
 UP BOUND001  x...0472   1965.000000
 UP BOUND001  x...0473   1965.000000
 UP BOUND001  x...0474   1965.000000
 UP BOUND001  x...0475   1965.000000
 UP BOUND001  x...0476   1965.000000
 UP BOUND001  x...0477   1965.000000
 UP BOUND001  x...0478   1965.000000
 UP BOUND001  x...0479   1965.000000
 UP BOUND001  x...0480   1965.000000
 UP BOUND001  x...0481   1965.000000
 UP BOUND001  x...0482   1965.000000
 UP BOUND001  x...0483   1965.000000
 UP BOUND001  x...0484   1965.000000
 UP BOUND001  x...0485   1965.000000
 UP BOUND001  x...0486   1965.000000
 UP BOUND001  x...0487   1965.000000
 UP BOUND001  x...0488   1965.000000
 UP BOUND001  x...0489   1965.000000
 UP BOUND001  x...0490   1965.000000
 UP BOUND001  x...0491   1965.000000
 UP BOUND001  x...0492   1965.000000
 UP BOUND001  x...0493   1965.000000
 UP BOUND001  x...0494   1965.000000
 UP BOUND001  x...0495   1965.000000
 UP BOUND001  x...0496   1965.000000
 UP BOUND001  x...0497   1965.000000
 UP BOUND001  x...0498   1965.000000
 UP BOUND001  x...0499   1965.000000
 UP BOUND001  x...0500   1965.000000
 UP BOUND001  x...0501   1965.000000
 UP BOUND001  x...0502   1965.000000
 UP BOUND001  x...0503   1965.000000
 UP BOUND001  x...0504   1965.000000
 UP BOUND001  x...0505   1965.000000
 UP BOUND001  x...0506   1965.000000
 UP BOUND001  x...0507   1965.000000
 UP BOUND001  x...0508   1965.000000
 UP BOUND001  x...0509   1965.000000
 UP BOUND001  x...0510   1965.000000
 UP BOUND001  x...0511   1965.000000
 UP BOUND001  x...0512   1965.000000
 UP BOUND001  x...0513   1965.000000
 UP BOUND001  x...0514   1965.000000
 UP BOUND001  x...0515   1965.000000
 UP BOUND001  x...0516   1965.000000
 UP BOUND001  x...0517   1965.000000
 UP BOUND001  x...0518   1965.000000
 UP BOUND001  x...0519   1965.000000
 UP BOUND001  x...0520   1965.000000
 UP BOUND001  x...0521   1965.000000
 UP BOUND001  x...0522   1965.000000
 UP BOUND001  x...0523   1965.000000
 UP BOUND001  x...0524   1965.000000
 UP BOUND001  x...0525   1965.000000
 UP BOUND001  x...0526   1965.000000
 UP BOUND001  x...0527   1965.000000
 UP BOUND001  x...0528   1965.000000
 UP BOUND001  x...0529   1965.000000
 UP BOUND001  x...0530   1965.000000
 UP BOUND001  x...0531   1965.000000
 UP BOUND001  x...0532   1965.000000
 UP BOUND001  x...0533   1965.000000
 UP BOUND001  x...0534   1965.000000
 UP BOUND001  x...0535   1965.000000
 UP BOUND001  x...0536   1965.000000
 UP BOUND001  x...0537   1965.000000
 UP BOUND001  x...0538   1965.000000
 UP BOUND001  x...0539   1965.000000
 UP BOUND001  x...0540   1965.000000
 UP BOUND001  x...0541   1965.000000
 UP BOUND001  x...0542   1965.000000
 UP BOUND001  x...0543   1965.000000
 UP BOUND001  x...0544   1965.000000
 UP BOUND001  x...0545   1965.000000
 UP BOUND001  x...0546   1965.000000
 UP BOUND001  x...0547   1965.000000
 UP BOUND001  x...0548   1965.000000
 UP BOUND001  x...0549   1965.000000
 UP BOUND001  x...0550   1965.000000
 UP BOUND001  x...0551   1965.000000
 UP BOUND001  x...0552   1965.000000
 UP BOUND001  x...0553   1965.000000
 UP BOUND001  x...0554   1965.000000
 UP BOUND001  x...0555   1965.000000
 UP BOUND001  x...0556   1965.000000
 UP BOUND001  x...0557   1965.000000
 UP BOUND001  x...0558   1965.000000
 UP BOUND001  x...0559   1965.000000
 UP BOUND001  x...0560   1965.000000
 UP BOUND001  x...0561   1965.000000
 UP BOUND001  x...0562   1965.000000
 UP BOUND001  x...0563   1965.000000
 UP BOUND001  x...0564   1965.000000
 UP BOUND001  x...0565   1965.000000
 UP BOUND001  x...0566   1965.000000
 UP BOUND001  x...0567   1965.000000
 UP BOUND001  x...0568   1965.000000
 UP BOUND001  x...0569   1965.000000
 UP BOUND001  x...0570   1965.000000
 UP BOUND001  x...0571   1965.000000
 UP BOUND001  x...0572   1965.000000
 UP BOUND001  x...0573   1965.000000
 UP BOUND001  x...0574   1965.000000
 UP BOUND001  x...0575   1965.000000
 UP BOUND001  x...0576   1965.000000
 UP BOUND001  x...0577   1965.000000
 UP BOUND001  x...0578   1965.000000
 UP BOUND001  x...0579   1965.000000
 UP BOUND001  x...0580   1965.000000
 UP BOUND001  x...0581   1965.000000
 UP BOUND001  x...0582   1965.000000
 UP BOUND001  x...0583   1965.000000
 UP BOUND001  x...0584   1965.000000
 UP BOUND001  x...0585   1965.000000
 UP BOUND001  x...0586   1965.000000
 UP BOUND001  x...0587   1965.000000
 UP BOUND001  x...0588   1965.000000
 UP BOUND001  x...0589   1965.000000
 UP BOUND001  x...0590   1965.000000
 UP BOUND001  x...0591   1965.000000
 UP BOUND001  x...0592   1965.000000
 UP BOUND001  x...0593   1965.000000
 UP BOUND001  x...0594   1965.000000
 UP BOUND001  x...0595   1965.000000
 UP BOUND001  x...0596   1965.000000
 UP BOUND001  x...0597   1965.000000
 UP BOUND001  x...0598   1965.000000
 UP BOUND001  x...0599   1965.000000
 UP BOUND001  x...0600   1965.000000
 UP BOUND001  x...0601   1965.000000
 UP BOUND001  x...0602   1965.000000
 UP BOUND001  x...0603   1965.000000
 UP BOUND001  x...0604   1965.000000
 UP BOUND001  x...0605   1965.000000
 UP BOUND001  x...0606   1965.000000
 UP BOUND001  x...0607   1965.000000
 UP BOUND001  x...0608   1965.000000
 UP BOUND001  x...0609   1965.000000
 UP BOUND001  x...0610   1965.000000
 UP BOUND001  x...0611   1965.000000
 UP BOUND001  x...0612   1965.000000
 UP BOUND001  x...0613   1965.000000
 UP BOUND001  x...0614   1965.000000
 UP BOUND001  x...0615   1965.000000
 UP BOUND001  x...0616   1965.000000
 UP BOUND001  x...0617   1965.000000
 UP BOUND001  x...0618   1965.000000
 UP BOUND001  x...0619   1965.000000
 UP BOUND001  x...0620   1965.000000
 UP BOUND001  x...0621   1965.000000
 UP BOUND001  x...0622   1965.000000
 UP BOUND001  x...0623   1965.000000
 UP BOUND001  x...0624   1965.000000
 UP BOUND001  x...0625   1965.000000
 UP BOUND001  x...0626   1965.000000
 UP BOUND001  x...0627   1965.000000
 UP BOUND001  x...0628   1965.000000
 UP BOUND001  x...0629   1965.000000
 UP BOUND001  x...0630   1965.000000
 UP BOUND001  x...0631   1965.000000
 UP BOUND001  x...0632   1965.000000
 UP BOUND001  x...0633   1965.000000
 UP BOUND001  x...0634   1965.000000
 UP BOUND001  x...0635   1965.000000
 UP BOUND001  x...0636   1965.000000
 UP BOUND001  x...0637   1965.000000
 UP BOUND001  x...0638   1965.000000
 UP BOUND001  x...0639   1965.000000
 UP BOUND001  x...0640   1965.000000
 UP BOUND001  x...0641   1965.000000
 UP BOUND001  x...0642   1965.000000
 UP BOUND001  x...0643   1965.000000
 UP BOUND001  x...0644   1965.000000
 UP BOUND001  x...0645   1965.000000
 UP BOUND001  x...0646   1965.000000
 UP BOUND001  x...0647   1965.000000
 UP BOUND001  x...0648   1965.000000
 UP BOUND001  x...0649   1965.000000
 UP BOUND001  x...0650   1965.000000
 UP BOUND001  x...0651   1965.000000
 UP BOUND001  x...0652   1965.000000
 UP BOUND001  x...0653   1965.000000
 UP BOUND001  x...0654   1965.000000
 UP BOUND001  x...0655   1965.000000
 UP BOUND001  x...0656   1965.000000
 UP BOUND001  x...0657   1965.000000
 UP BOUND001  x...0658   1965.000000
 UP BOUND001  x...0659   1965.000000
 UP BOUND001  x...0660   1965.000000
 UP BOUND001  x...0661   1965.000000
 UP BOUND001  x...0662   1965.000000
 UP BOUND001  x...0663   1965.000000
 UP BOUND001  x...0664   1965.000000
 UP BOUND001  x...0665   1965.000000
 UP BOUND001  x...0666   1965.000000
 UP BOUND001  x...0667   1965.000000
 UP BOUND001  x...0668   1965.000000
 UP BOUND001  x...0669   1965.000000
 UP BOUND001  x...0670   1965.000000
 UP BOUND001  x...0671   1965.000000
 UP BOUND001  x...0672   1965.000000
 UP BOUND001  x...0673   1965.000000
 UP BOUND001  x...0674   1965.000000
 UP BOUND001  x...0675   1965.000000
 UP BOUND001  x...0676   1965.000000
 UP BOUND001  x...0677   1965.000000
 UP BOUND001  x...0678   1965.000000
 UP BOUND001  x...0679   1965.000000
 UP BOUND001  x...0680   1965.000000
 UP BOUND001  x...0681   1965.000000
 UP BOUND001  x...0682   1965.000000
 UP BOUND001  x...0683   1965.000000
 UP BOUND001  x...0684   1965.000000
 UP BOUND001  x...0685   1965.000000
 UP BOUND001  x...0686   1965.000000
 UP BOUND001  x...0687   1965.000000
 UP BOUND001  x...0688   1965.000000
 UP BOUND001  x...0689   1965.000000
 UP BOUND001  x...0690   1965.000000
 UP BOUND001  x...0691   1965.000000
 UP BOUND001  x...0692   1965.000000
 UP BOUND001  x...0693   1965.000000
 UP BOUND001  x...0694   1965.000000
 UP BOUND001  x...0695   1965.000000
 UP BOUND001  x...0696   1965.000000
 UP BOUND001  x...0697   1965.000000
 UP BOUND001  x...0698   1965.000000
 UP BOUND001  x...0699   1965.000000
 UP BOUND001  x...0700   1965.000000
 UP BOUND001  x...0701   1965.000000
 UP BOUND001  x...0702   1965.000000
 UP BOUND001  x...0703   1965.000000
 UP BOUND001  x...0704   1965.000000
 UP BOUND001  x...0705   1965.000000
 UP BOUND001  x...0706   1965.000000
 UP BOUND001  x...0707   1965.000000
 UP BOUND001  x...0708   1965.000000
 UP BOUND001  x...0709   1965.000000
 UP BOUND001  x...0710   1965.000000
 UP BOUND001  x...0711   1965.000000
 UP BOUND001  x...0712   1965.000000
 UP BOUND001  x...0713   1965.000000
 UP BOUND001  x...0714   1965.000000
 UP BOUND001  x...0715   1965.000000
 UP BOUND001  x...0716   1965.000000
 UP BOUND001  x...0717   1965.000000
 UP BOUND001  x...0718   1965.000000
 UP BOUND001  x...0719   1965.000000
 UP BOUND001  x...0720   1965.000000
 UP BOUND001  x...0721   1965.000000
 UP BOUND001  x...0722   1965.000000
 UP BOUND001  x...0723   1965.000000
 UP BOUND001  x...0724   1965.000000
 UP BOUND001  x...0725   1965.000000
 UP BOUND001  x...0726   1965.000000
 UP BOUND001  x...0727   1965.000000
 UP BOUND001  x...0728   1965.000000
 UP BOUND001  x...0729   1965.000000
 UP BOUND001  x...0730   1965.000000
 UP BOUND001  x...0731   1965.000000
 UP BOUND001  x...0732   1965.000000
 UP BOUND001  x...0733   1965.000000
 UP BOUND001  x...0734   1965.000000
 UP BOUND001  x...0735   1965.000000
 UP BOUND001  x...0736   1965.000000
 UP BOUND001  x...0737   1965.000000
 UP BOUND001  x...0738   1965.000000
 UP BOUND001  x...0739   1965.000000
 UP BOUND001  x...0740   1965.000000
 UP BOUND001  x...0741   1965.000000
 UP BOUND001  x...0742   1965.000000
 UP BOUND001  x...0743   1965.000000
 UP BOUND001  x...0744   1965.000000
 UP BOUND001  x...0745   1965.000000
 UP BOUND001  x...0746   1965.000000
 UP BOUND001  x...0747   1965.000000
 UP BOUND001  x...0748   1965.000000
 UP BOUND001  x...0749   1965.000000
 UP BOUND001  x...0750   1965.000000
 UP BOUND001  x...0751   1965.000000
 UP BOUND001  x...0752   1965.000000
 UP BOUND001  x...0753   1965.000000
 UP BOUND001  x...0754   1965.000000
 UP BOUND001  x...0755   1965.000000
 UP BOUND001  x...0756   1965.000000
 UP BOUND001  x...0757   1965.000000
 UP BOUND001  x...0758   1965.000000
 UP BOUND001  x...0759   1965.000000
 UP BOUND001  x...0760   1965.000000
 UP BOUND001  x...0761   1965.000000
 UP BOUND001  x...0762   1965.000000
 UP BOUND001  x...0763   1965.000000
 UP BOUND001  x...0764   1965.000000
 UP BOUND001  x...0765   1965.000000
 UP BOUND001  x...0766   1965.000000
 UP BOUND001  x...0767   1965.000000
 UP BOUND001  x...0768   1965.000000
 UP BOUND001  x...0769   1965.000000
 UP BOUND001  x...0770   1965.000000
 UP BOUND001  x...0771   1965.000000
 UP BOUND001  x...0772   1965.000000
 UP BOUND001  x...0773   1965.000000
 UP BOUND001  x...0774   1965.000000
 UP BOUND001  x...0775   1965.000000
 UP BOUND001  x...0776   1965.000000
 UP BOUND001  x...0777   1965.000000
 UP BOUND001  x...0778   1965.000000
 UP BOUND001  x...0779   1965.000000
 UP BOUND001  x...0780   1965.000000
 UP BOUND001  x...0781   1965.000000
 UP BOUND001  x...0782   1965.000000
 UP BOUND001  x...0783   1965.000000
 UP BOUND001  x...0784   1965.000000
 UP BOUND001  x...0785   1965.000000
 UP BOUND001  x...0786   1965.000000
 UP BOUND001  x...0787   1965.000000
 UP BOUND001  x...0788   1965.000000
 UP BOUND001  x...0789   1965.000000
 UP BOUND001  x...0790   1965.000000
 UP BOUND001  x...0791   1965.000000
 UP BOUND001  x...0792   1965.000000
 UP BOUND001  x...0793   1965.000000
 UP BOUND001  x...0794   1965.000000
 UP BOUND001  x...0795   1965.000000
 UP BOUND001  x...0796   1965.000000
 UP BOUND001  x...0797   1965.000000
 UP BOUND001  x...0798   1965.000000
 UP BOUND001  x...0799   1965.000000
 UP BOUND001  x...0800   1965.000000
 UP BOUND001  x...0801   1965.000000
 UP BOUND001  x...0802   1965.000000
 UP BOUND001  x...0803   1965.000000
 UP BOUND001  x...0804   1965.000000
 UP BOUND001  x...0805   1965.000000
 UP BOUND001  x...0806   1965.000000
 UP BOUND001  x...0807   1965.000000
 UP BOUND001  x...0808   1965.000000
 UP BOUND001  x...0809   1965.000000
 UP BOUND001  x...0810   1965.000000
 UP BOUND001  x...0811   1965.000000
 UP BOUND001  x...0812   1965.000000
 UP BOUND001  x...0813   1965.000000
 UP BOUND001  x...0814   1965.000000
 UP BOUND001  x...0815   1965.000000
 UP BOUND001  x...0816   1965.000000
 UP BOUND001  x...0817   1965.000000
 UP BOUND001  x...0818   1965.000000
 UP BOUND001  x...0819   1965.000000
 UP BOUND001  x...0820   1965.000000
 UP BOUND001  x...0821   1965.000000
 UP BOUND001  x...0822   1965.000000
 UP BOUND001  x...0823   1965.000000
 UP BOUND001  x...0824   1965.000000
 UP BOUND001  x...0825   1965.000000
 UP BOUND001  x...0826   1965.000000
 UP BOUND001  x...0827   1965.000000
 UP BOUND001  x...0828   1965.000000
 UP BOUND001  x...0829   1965.000000
 UP BOUND001  x...0830   1965.000000
 UP BOUND001  x...0831   1965.000000
 UP BOUND001  x...0832   1965.000000
 UP BOUND001  x...0833   1965.000000
 UP BOUND001  x...0834   1965.000000
 UP BOUND001  x...0835   1965.000000
 UP BOUND001  x...0836   1965.000000
 UP BOUND001  x...0837   1965.000000
 UP BOUND001  x...0838   1965.000000
 UP BOUND001  x...0839   1965.000000
 UP BOUND001  x...0840   1965.000000
 UP BOUND001  x...0841   1965.000000
 UP BOUND001  x...0842   1965.000000
 UP BOUND001  x...0843   1965.000000
 UP BOUND001  x...0844   1965.000000
 UP BOUND001  x...0845   1965.000000
 UP BOUND001  x...0846   1965.000000
 UP BOUND001  x...0847   1965.000000
 UP BOUND001  x...0848   1965.000000
 UP BOUND001  x...0849   1965.000000
 UP BOUND001  x...0850   1965.000000
 UP BOUND001  x...0851   1965.000000
 UP BOUND001  x...0852   1965.000000
 UP BOUND001  x...0853   1965.000000
 UP BOUND001  x...0854   1965.000000
 UP BOUND001  x...0855   1965.000000
 UP BOUND001  x...0856   1965.000000
 UP BOUND001  x...0857   1965.000000
 UP BOUND001  x...0858   1965.000000
 UP BOUND001  x...0859   1965.000000
 UP BOUND001  x...0860   1965.000000
 UP BOUND001  x...0861   1965.000000
 UP BOUND001  x...0862   1965.000000
 UP BOUND001  x...0863   1965.000000
 UP BOUND001  x...0864   1965.000000
 UP BOUND001  x...0865   1965.000000
 UP BOUND001  x...0866   1965.000000
 UP BOUND001  x...0867   1965.000000
 UP BOUND001  x...0868   1965.000000
 UP BOUND001  x...0869   1965.000000
 UP BOUND001  x...0870   1965.000000
 UP BOUND001  x...0871   1965.000000
 UP BOUND001  x...0872   1965.000000
 UP BOUND001  x...0873   1965.000000
 UP BOUND001  x...0874   1965.000000
 UP BOUND001  x...0875   1965.000000
 UP BOUND001  x...0876   1965.000000
 UP BOUND001  x...0877   1965.000000
 UP BOUND001  x...0878   1965.000000
 UP BOUND001  x...0879   1965.000000
 UP BOUND001  x...0880   1965.000000
 UP BOUND001  x...0881   1965.000000
 UP BOUND001  x...0882   1965.000000
 UP BOUND001  x...0883   1965.000000
 UP BOUND001  x...0884   1965.000000
 UP BOUND001  x...0885   1965.000000
 UP BOUND001  x...0886   1965.000000
 UP BOUND001  x...0887   1965.000000
 UP BOUND001  x...0888   1965.000000
 UP BOUND001  x...0889   1965.000000
 UP BOUND001  x...0890   1965.000000
 UP BOUND001  x...0891   1965.000000
 UP BOUND001  x...0892   1965.000000
 UP BOUND001  x...0893   1965.000000
 UP BOUND001  x...0894   1965.000000
 UP BOUND001  x...0895   1965.000000
 UP BOUND001  x...0896   1965.000000
 UP BOUND001  x...0897   1965.000000
 UP BOUND001  x...0898   1965.000000
 UP BOUND001  x...0899   1965.000000
 UP BOUND001  x...0900   1965.000000
 UP BOUND001  x...0901   1965.000000
 UP BOUND001  x...0902   1965.000000
 UP BOUND001  x...0903   1965.000000
 UP BOUND001  x...0904   1965.000000
 UP BOUND001  x...0905   1965.000000
 UP BOUND001  x...0906   1965.000000
 UP BOUND001  x...0907   1965.000000
 UP BOUND001  x...0908   1965.000000
 UP BOUND001  x...0909   1965.000000
 UP BOUND001  x...0910   1965.000000
 UP BOUND001  x...0911   1965.000000
 UP BOUND001  x...0912   1965.000000
 UP BOUND001  x...0913   1965.000000
 UP BOUND001  x...0914   1965.000000
 UP BOUND001  x...0915   1965.000000
 UP BOUND001  x...0916   1965.000000
 UP BOUND001  x...0917   1965.000000
 UP BOUND001  x...0918   1965.000000
 UP BOUND001  x...0919   1965.000000
 UP BOUND001  x...0920   1965.000000
 UP BOUND001  x...0921   1965.000000
 UP BOUND001  x...0922   1965.000000
 UP BOUND001  x...0923   1965.000000
 UP BOUND001  x...0924   1965.000000
 UP BOUND001  x...0925   1965.000000
 UP BOUND001  x...0926   1965.000000
 UP BOUND001  x...0927   1965.000000
 UP BOUND001  x...0928   1965.000000
 UP BOUND001  x...0929   1965.000000
 UP BOUND001  x...0930   1965.000000
 UP BOUND001  x...0931   1965.000000
 UP BOUND001  x...0932   1965.000000
 UP BOUND001  x...0933   1965.000000
 UP BOUND001  x...0934   1965.000000
 UP BOUND001  x...0935   1965.000000
 UP BOUND001  x...0936   1965.000000
 UP BOUND001  x...0937   1965.000000
 UP BOUND001  x...0938   1965.000000
 UP BOUND001  x...0939   1965.000000
 UP BOUND001  x...0940   1965.000000
 UP BOUND001  x...0941   1965.000000
 UP BOUND001  x...0942   1965.000000
 UP BOUND001  x...0943   1965.000000
 UP BOUND001  x...0944   1965.000000
 UP BOUND001  x...0945   1965.000000
 UP BOUND001  x...0946   1965.000000
 UP BOUND001  x...0947   1965.000000
 UP BOUND001  x...0948   1965.000000
 UP BOUND001  x...0949   1965.000000
 UP BOUND001  x...0950   1965.000000
 UP BOUND001  x...0951   1965.000000
 UP BOUND001  x...0952   1965.000000
 UP BOUND001  x...0953   1965.000000
 UP BOUND001  x...0954   1965.000000
 UP BOUND001  x...0955   1965.000000
 UP BOUND001  x...0956   1965.000000
 UP BOUND001  x...0957   1965.000000
 UP BOUND001  x...0958   1965.000000
 UP BOUND001  x...0959   1965.000000
 UP BOUND001  x...0960   1965.000000
 UP BOUND001  x...0961   1965.000000
 UP BOUND001  x...0962   1965.000000
 UP BOUND001  x...0963   1965.000000
 UP BOUND001  x...0964   1965.000000
 UP BOUND001  x...0965   1965.000000
 UP BOUND001  x...0966   1965.000000
 UP BOUND001  x...0967   1965.000000
 UP BOUND001  x...0968   1965.000000
 UP BOUND001  x...0969   1965.000000
 UP BOUND001  x...0970   1965.000000
 UP BOUND001  x...0971   1965.000000
 UP BOUND001  x...0972   1965.000000
 UP BOUND001  x...0973   1965.000000
 UP BOUND001  x...0974   1965.000000
 UP BOUND001  x...0975   1965.000000
 UP BOUND001  x...0976   1965.000000
 UP BOUND001  x...0977   1965.000000
 UP BOUND001  x...0978   1965.000000
 UP BOUND001  x...0979   1965.000000
 UP BOUND001  x...0980   1965.000000
 UP BOUND001  x...0981   1965.000000
 UP BOUND001  x...0982   1965.000000
 UP BOUND001  x...0983   1965.000000
 UP BOUND001  x...0984   1965.000000
 UP BOUND001  x...0985   1965.000000
 UP BOUND001  x...0986   1965.000000
 UP BOUND001  x...0987   1965.000000
 UP BOUND001  x...0988   1965.000000
 UP BOUND001  x...0989   1965.000000
 UP BOUND001  x...0990   1965.000000
 UP BOUND001  x...0991   1965.000000
 UP BOUND001  x...0992   1965.000000
 UP BOUND001  x...0993   1965.000000
 UP BOUND001  x...0994   1965.000000
 UP BOUND001  x...0995   1965.000000
 UP BOUND001  x...0996   1965.000000
 UP BOUND001  x...0997   1965.000000
 UP BOUND001  x...0998   1965.000000
 UP BOUND001  x...0999   1965.000000
 UP BOUND001  x...1000   1965.000000
 UP BOUND001  x...1001   1965.000000
 UP BOUND001  x...1002   1965.000000
 UP BOUND001  x...1003   1965.000000
 UP BOUND001  x...1004   1965.000000
 UP BOUND001  x...1005   1965.000000
 UP BOUND001  x...1006   1965.000000
 UP BOUND001  x...1007   1965.000000
 UP BOUND001  x...1008   1965.000000
 UP BOUND001  x...1009   1965.000000
 UP BOUND001  x...1010   1965.000000
 UP BOUND001  x...1011   1965.000000
 UP BOUND001  x...1012   1965.000000
 UP BOUND001  x...1013   1965.000000
 UP BOUND001  x...1014   1965.000000
 UP BOUND001  x...1015   1965.000000
 UP BOUND001  x...1016   1965.000000
 UP BOUND001  x...1017   1965.000000
 UP BOUND001  x...1018   1965.000000
 UP BOUND001  x...1019   1965.000000
 UP BOUND001  x...1020   1965.000000
 UP BOUND001  x...1021   1965.000000
 UP BOUND001  x...1022   1965.000000
 UP BOUND001  x...1023   1965.000000
 UP BOUND001  x...1024   1965.000000
 UP BOUND001  x...1025   1965.000000
 UP BOUND001  x...1026   1965.000000
 UP BOUND001  x...1027   1965.000000
 UP BOUND001  x...1028   1965.000000
 UP BOUND001  x...1029   1965.000000
 UP BOUND001  x...1030   1965.000000
 UP BOUND001  x...1031   1965.000000
 UP BOUND001  x...1032   1965.000000
 UP BOUND001  x...1033   1965.000000
 UP BOUND001  x...1034   1965.000000
 UP BOUND001  x...1035   1965.000000
 UP BOUND001  x...1036   1965.000000
 UP BOUND001  x...1037   1965.000000
 UP BOUND001  x...1038   1965.000000
 UP BOUND001  x...1039   1965.000000
 UP BOUND001  x...1040   1965.000000
 UP BOUND001  x...1041   1965.000000
 UP BOUND001  x...1042   1965.000000
 UP BOUND001  x...1043   1965.000000
 UP BOUND001  x...1044   1965.000000
 UP BOUND001  x...1045   1965.000000
 UP BOUND001  x...1046   1965.000000
 UP BOUND001  x...1047   1965.000000
 UP BOUND001  x...1048   1965.000000
 UP BOUND001  x...1049   1965.000000
 UP BOUND001  x...1050   1965.000000
 UP BOUND001  x...1051   1965.000000
 UP BOUND001  x...1052   1965.000000
 UP BOUND001  x...1053   1965.000000
 UP BOUND001  x...1054   1965.000000
 UP BOUND001  x...1055   1965.000000
 UP BOUND001  x...1056   1965.000000
 UP BOUND001  x...1057   1965.000000
 UP BOUND001  x...1058   1965.000000
 UP BOUND001  x...1059   1965.000000
 UP BOUND001  x...1060   1965.000000
 UP BOUND001  x...1061   1965.000000
 UP BOUND001  x...1062   1965.000000
 UP BOUND001  x...1063   1965.000000
 UP BOUND001  x...1064   1965.000000
 UP BOUND001  x...1065   1965.000000
 UP BOUND001  x...1066   1965.000000
 UP BOUND001  x...1067   1965.000000
 UP BOUND001  x...1068   1965.000000
 UP BOUND001  x...1069   1965.000000
 UP BOUND001  x...1070   1965.000000
 UP BOUND001  x...1071   1965.000000
 UP BOUND001  x...1072   1965.000000
 UP BOUND001  x...1073   1965.000000
 UP BOUND001  x...1074   1965.000000
 UP BOUND001  x...1075   1965.000000
 UP BOUND001  x...1076   1965.000000
 UP BOUND001  x...1077   1965.000000
 UP BOUND001  x...1078   1965.000000
 UP BOUND001  x...1079   1965.000000
 UP BOUND001  x...1080   1965.000000
 UP BOUND001  x...1081   1965.000000
 UP BOUND001  x...1082   1965.000000
 UP BOUND001  x...1083   1965.000000
 UP BOUND001  x...1084   1965.000000
 UP BOUND001  x...1085   1965.000000
 UP BOUND001  x...1086   1965.000000
 UP BOUND001  x...1087   1965.000000
 UP BOUND001  x...1088   1965.000000
 UP BOUND001  x...1089   1965.000000
 UP BOUND001  x...1090   1965.000000
 UP BOUND001  x...1091   1965.000000
 UP BOUND001  x...1092   1965.000000
 UP BOUND001  x...1093   1965.000000
 UP BOUND001  x...1094   1965.000000
 UP BOUND001  x...1095   1965.000000
 UP BOUND001  x...1096   1965.000000
 UP BOUND001  x...1097   1965.000000
 UP BOUND001  x...1098   1965.000000
 UP BOUND001  x...1099   1965.000000
 UP BOUND001  x...1100   1965.000000
 UP BOUND001  x...1101   1965.000000
 UP BOUND001  x...1102   1965.000000
 UP BOUND001  x...1103   1965.000000
 UP BOUND001  x...1104   1965.000000
 UP BOUND001  x...1105   1965.000000
 UP BOUND001  x...1106   1965.000000
 UP BOUND001  x...1107   1965.000000
 UP BOUND001  x...1108   1965.000000
 UP BOUND001  x...1109   1965.000000
 UP BOUND001  x...1110   1965.000000
 UP BOUND001  x...1111   1965.000000
 UP BOUND001  x...1112   1965.000000
 UP BOUND001  x...1113   1965.000000
 UP BOUND001  x...1114   1965.000000
 UP BOUND001  x...1115   1965.000000
 UP BOUND001  x...1116   1965.000000
 UP BOUND001  x...1117   1965.000000
 UP BOUND001  x...1118   1965.000000
 UP BOUND001  x...1119   1965.000000
 UP BOUND001  x...1120   1965.000000
 UP BOUND001  x...1121   1965.000000
 UP BOUND001  x...1122   1965.000000
 UP BOUND001  x...1123   1965.000000
 UP BOUND001  x...1124   1965.000000
 UP BOUND001  x...1125   1965.000000
 UP BOUND001  x...1126   1965.000000
 UP BOUND001  x...1127   1965.000000
 UP BOUND001  x...1128   1965.000000
 UP BOUND001  x...1129   1965.000000
 UP BOUND001  x...1130   1965.000000
 UP BOUND001  x...1131   1965.000000
 UP BOUND001  x...1132   1965.000000
 UP BOUND001  x...1133   1965.000000
 UP BOUND001  x...1134   1965.000000
 UP BOUND001  x...1135   1965.000000
 UP BOUND001  x...1136   1965.000000
 UP BOUND001  x...1137   1965.000000
 UP BOUND001  x...1138   1965.000000
 UP BOUND001  x...1139   1965.000000
 UP BOUND001  x...1140   1965.000000
 UP BOUND001  x...1141   1965.000000
 UP BOUND001  x...1142   1965.000000
 UP BOUND001  x...1143   1965.000000
 UP BOUND001  x...1144   1965.000000
 UP BOUND001  x...1145   1965.000000
 UP BOUND001  x...1146   1965.000000
 UP BOUND001  x...1147   1965.000000
 UP BOUND001  x...1148   1965.000000
 UP BOUND001  x...1149   1965.000000
 UP BOUND001  x...1150   1965.000000
 UP BOUND001  x...1151   1965.000000
 UP BOUND001  x...1152   1965.000000
 UP BOUND001  x...1153   1965.000000
 UP BOUND001  x...1154   1965.000000
 UP BOUND001  x...1155   1965.000000
 UP BOUND001  x...1156   1965.000000
 UP BOUND001  x...1157   1965.000000
 UP BOUND001  x...1158   1965.000000
 UP BOUND001  x...1159   1965.000000
 UP BOUND001  x...1160   1965.000000
 UP BOUND001  x...1161   1965.000000
 UP BOUND001  x...1162   1965.000000
 UP BOUND001  x...1163   1965.000000
 UP BOUND001  x...1164   1965.000000
 UP BOUND001  x...1165   1965.000000
 UP BOUND001  x...1166   1965.000000
 UP BOUND001  x...1167   1965.000000
 UP BOUND001  x...1168   1965.000000
 UP BOUND001  x...1169   1965.000000
 UP BOUND001  x...1170   1965.000000
 UP BOUND001  x...1171   1965.000000
 UP BOUND001  x...1172   1965.000000
 UP BOUND001  x...1173   1965.000000
 UP BOUND001  x...1174   1965.000000
 UP BOUND001  x...1175   1965.000000
 UP BOUND001  x...1176   1965.000000
 UP BOUND001  x...1177   1965.000000
 UP BOUND001  x...1178   1965.000000
 UP BOUND001  x...1179   1965.000000
 UP BOUND001  x...1180   1965.000000
 UP BOUND001  x...1181   1965.000000
 UP BOUND001  x...1182   1965.000000
 UP BOUND001  x...1183   1965.000000
 UP BOUND001  x...1184   1965.000000
 UP BOUND001  x...1185   1965.000000
 UP BOUND001  x...1186   1965.000000
 UP BOUND001  x...1187   1965.000000
 UP BOUND001  x...1188   1965.000000
 UP BOUND001  x...1189   1965.000000
 UP BOUND001  x...1190   1965.000000
 UP BOUND001  x...1191   1965.000000
 UP BOUND001  x...1192   1965.000000
 UP BOUND001  x...1193   1965.000000
 UP BOUND001  x...1194   1965.000000
 UP BOUND001  x...1195   1965.000000
 UP BOUND001  x...1196   1965.000000
 UP BOUND001  x...1197   1965.000000
 UP BOUND001  x...1198   1965.000000
 UP BOUND001  x...1199   1965.000000
 UP BOUND001  x...1200   1965.000000
 UP BOUND001  x...1201   1965.000000
 UP BOUND001  x...1202   1965.000000
 UP BOUND001  x...1203   1965.000000
 UP BOUND001  x...1204   1965.000000
 UP BOUND001  x...1205   1965.000000
 UP BOUND001  x...1206   1965.000000
 UP BOUND001  x...1207   1965.000000
 UP BOUND001  x...1208   1965.000000
 UP BOUND001  x...1209   1965.000000
 UP BOUND001  x...1210   1965.000000
 UP BOUND001  x...1211   1965.000000
 UP BOUND001  x...1212   1965.000000
 UP BOUND001  x...1213   1965.000000
 UP BOUND001  x...1214   1965.000000
 UP BOUND001  x...1215   1965.000000
 UP BOUND001  x...1216   1965.000000
 UP BOUND001  x...1217   1965.000000
 UP BOUND001  x...1218   1965.000000
 UP BOUND001  x...1219   1965.000000
 UP BOUND001  x...1220   1965.000000
 UP BOUND001  x...1221   1965.000000
 UP BOUND001  x...1222   1965.000000
 UP BOUND001  x...1223   1965.000000
 UP BOUND001  x...1224   1965.000000
 UP BOUND001  x...1225   1965.000000
 UP BOUND001  x...1226   1965.000000
 UP BOUND001  x...1227   1965.000000
 UP BOUND001  x...1228   1965.000000
 UP BOUND001  x...1229   1965.000000
 UP BOUND001  x...1230   1965.000000
 UP BOUND001  x...1231   1965.000000
 UP BOUND001  x...1232   1965.000000
 UP BOUND001  x...1233   1965.000000
 UP BOUND001  x...1234   1965.000000
 UP BOUND001  x...1235   1965.000000
 UP BOUND001  x...1236   1965.000000
 UP BOUND001  x...1237   1965.000000
 UP BOUND001  x...1238   1965.000000
 UP BOUND001  x...1239   1965.000000
 UP BOUND001  x...1240   1965.000000
 UP BOUND001  x...1241   1965.000000
 UP BOUND001  x...1242   1965.000000
 UP BOUND001  x...1243   1965.000000
 UP BOUND001  x...1244   1965.000000
 UP BOUND001  x...1245   1965.000000
 UP BOUND001  x...1246   1965.000000
 UP BOUND001  x...1247   1965.000000
 UP BOUND001  x...1248   1965.000000
 UP BOUND001  x...1249   1965.000000
 UP BOUND001  x...1250   1965.000000
 UP BOUND001  x...1251   1965.000000
 UP BOUND001  x...1252   1965.000000
 UP BOUND001  x...1253   1965.000000
 UP BOUND001  x...1254   1965.000000
 UP BOUND001  x...1255   1965.000000
 UP BOUND001  x...1256   1965.000000
 UP BOUND001  x...1257   1965.000000
 UP BOUND001  x...1258   1965.000000
 UP BOUND001  x...1259   1965.000000
 UP BOUND001  x...1260   1965.000000
 UP BOUND001  x...1261   1965.000000
 UP BOUND001  x...1262   1965.000000
 UP BOUND001  x...1263   1965.000000
 UP BOUND001  x...1264   1965.000000
 UP BOUND001  x...1265   1965.000000
 UP BOUND001  x...1266   1965.000000
 UP BOUND001  x...1267   1965.000000
 UP BOUND001  x...1268   1965.000000
 UP BOUND001  x...1269   1965.000000
 UP BOUND001  x...1270   1965.000000
 UP BOUND001  x...1271   1965.000000
 UP BOUND001  x...1272   1965.000000
 UP BOUND001  x...1273   1965.000000
 UP BOUND001  x...1274   1965.000000
 UP BOUND001  x...1275   1965.000000
 UP BOUND001  x...1276   1965.000000
 UP BOUND001  x...1277   1965.000000
 UP BOUND001  x...1278   1965.000000
 UP BOUND001  x...1279   1965.000000
 UP BOUND001  x...1280   1965.000000
 UP BOUND001  x...1281   1965.000000
 UP BOUND001  x...1282   1965.000000
 UP BOUND001  x...1283   1965.000000
 UP BOUND001  x...1284   1965.000000
 UP BOUND001  x...1285   1965.000000
 UP BOUND001  x...1286   1965.000000
 UP BOUND001  x...1287   1965.000000
 UP BOUND001  x...1288   1965.000000
 UP BOUND001  x...1289   1965.000000
 UP BOUND001  x...1290   1965.000000
 UP BOUND001  x...1291   1965.000000
 UP BOUND001  x...1292   1965.000000
 UP BOUND001  x...1293   1965.000000
 UP BOUND001  x...1294   1965.000000
 UP BOUND001  x...1295   1965.000000
 UP BOUND001  x...1296   1965.000000
 UP BOUND001  x...1297   1965.000000
 UP BOUND001  x...1298   1965.000000
 UP BOUND001  x...1299   1965.000000
 UP BOUND001  x...1300   1965.000000
 UP BOUND001  x...1301   1965.000000
 UP BOUND001  x...1302   1965.000000
 UP BOUND001  x...1303   1965.000000
 UP BOUND001  x...1304   1965.000000
 UP BOUND001  x...1305   1965.000000
 UP BOUND001  x...1306   1965.000000
 UP BOUND001  x...1307   1965.000000
 UP BOUND001  x...1308   1965.000000
 UP BOUND001  x...1309   1965.000000
 UP BOUND001  x...1310   1965.000000
 UP BOUND001  x...1311   1965.000000
 UP BOUND001  x...1312   1965.000000
 UP BOUND001  x...1313   1965.000000
 UP BOUND001  x...1314   1965.000000
 UP BOUND001  x...1315   1965.000000
 UP BOUND001  x...1316   1965.000000
 UP BOUND001  x...1317   1965.000000
 UP BOUND001  x...1318   1965.000000
 UP BOUND001  x...1319   1965.000000
 UP BOUND001  x...1320   1965.000000
 UP BOUND001  x...1321   1965.000000
 UP BOUND001  x...1322   1965.000000
 UP BOUND001  x...1323   1965.000000
 UP BOUND001  x...1324   1965.000000
 UP BOUND001  x...1325   1965.000000
 UP BOUND001  x...1326   1965.000000
 UP BOUND001  x...1327   1965.000000
 UP BOUND001  x...1328   1965.000000
 UP BOUND001  x...1329   1965.000000
 UP BOUND001  x...1330   1965.000000
 UP BOUND001  x...1331   1965.000000
 UP BOUND001  x...1332   1965.000000
 UP BOUND001  x...1333   1965.000000
 UP BOUND001  x...1334   1965.000000
 UP BOUND001  x...1335   1965.000000
 UP BOUND001  x...1336   1965.000000
 UP BOUND001  x...1337   1965.000000
 UP BOUND001  x...1338   1965.000000
 UP BOUND001  x...1339   1965.000000
 UP BOUND001  x...1340   1965.000000
 UP BOUND001  x...1341   1965.000000
 UP BOUND001  x...1342   1965.000000
 UP BOUND001  x...1343   1965.000000
 UP BOUND001  x...1344   1965.000000
 UP BOUND001  x...1345   1965.000000
 UP BOUND001  x...1346   1965.000000
 UP BOUND001  x...1347   1965.000000
 UP BOUND001  x...1348   1965.000000
 UP BOUND001  x...1349   1965.000000
 UP BOUND001  x...1350   1965.000000
 UP BOUND001  x...1351   1965.000000
 UP BOUND001  x...1352   1965.000000
 UP BOUND001  x...1353   1965.000000
 UP BOUND001  x...1354   1965.000000
 UP BOUND001  x...1355   1965.000000
 UP BOUND001  x...1356   1965.000000
 UP BOUND001  x...1357   1965.000000
 UP BOUND001  x...1358   1965.000000
 UP BOUND001  x...1359   1965.000000
 UP BOUND001  x...1360   1965.000000
 UP BOUND001  x...1361   1965.000000
 UP BOUND001  x...1362   1965.000000
 UP BOUND001  x...1363   1965.000000
 UP BOUND001  x...1364   1965.000000
 UP BOUND001  x...1365   1965.000000
 UP BOUND001  x...1366   1965.000000
 UP BOUND001  x...1367   1965.000000
 UP BOUND001  x...1368   1965.000000
 UP BOUND001  x...1369   1965.000000
 UP BOUND001  x...1370   1965.000000
 UP BOUND001  x...1371   1965.000000
 UP BOUND001  x...1372   1965.000000
 UP BOUND001  x...1373   1965.000000
 UP BOUND001  x...1374   1965.000000
 UP BOUND001  x...1375   1965.000000
 UP BOUND001  x...1376   1965.000000
 UP BOUND001  x...1377   1965.000000
 UP BOUND001  x...1378   1965.000000
 UP BOUND001  x...1379   1965.000000
 UP BOUND001  x...1380   1965.000000
 UP BOUND001  x...1381   1965.000000
 UP BOUND001  x...1382   1965.000000
 UP BOUND001  x...1383   1965.000000
 UP BOUND001  x...1384   1965.000000
 UP BOUND001  x...1385   1965.000000
 UP BOUND001  x...1386   1965.000000
 UP BOUND001  x...1387   1965.000000
 UP BOUND001  x...1388   1965.000000
 UP BOUND001  x...1389   1965.000000
 UP BOUND001  x...1390   1965.000000
 UP BOUND001  x...1391   1965.000000
 UP BOUND001  x...1392   1965.000000
 UP BOUND001  x...1393   1965.000000
 UP BOUND001  x...1394   1965.000000
 UP BOUND001  x...1395   1965.000000
 UP BOUND001  x...1396   1965.000000
 UP BOUND001  x...1397   1965.000000
 UP BOUND001  x...1398   1965.000000
 UP BOUND001  x...1399   1965.000000
 UP BOUND001  x...1400   1965.000000
 UP BOUND001  x...1401   1965.000000
 UP BOUND001  x...1402   1965.000000
 UP BOUND001  x...1403   1965.000000
 UP BOUND001  x...1404   1965.000000
 UP BOUND001  x...1405   1965.000000
 UP BOUND001  x...1406   1965.000000
 UP BOUND001  x...1407   1965.000000
 UP BOUND001  x...1408   1965.000000
 UP BOUND001  x...1409   1965.000000
 UP BOUND001  x...1410   1965.000000
 UP BOUND001  x...1411   1965.000000
 UP BOUND001  x...1412   1965.000000
 UP BOUND001  x...1413   1965.000000
 UP BOUND001  x...1414   1965.000000
 UP BOUND001  x...1415   1965.000000
 UP BOUND001  x...1416   1965.000000
 UP BOUND001  x...1417   1965.000000
 UP BOUND001  x...1418   1965.000000
 UP BOUND001  x...1419   1965.000000
 UP BOUND001  x...1420   1965.000000
 UP BOUND001  x...1421   1965.000000
 UP BOUND001  x...1422   1965.000000
 UP BOUND001  x...1423   1965.000000
 UP BOUND001  x...1424   1965.000000
 UP BOUND001  x...1425   1965.000000
 UP BOUND001  x...1426   1965.000000
 UP BOUND001  x...1427   1965.000000
 UP BOUND001  x...1428   1965.000000
 UP BOUND001  x...1429   1965.000000
 UP BOUND001  x...1430   1965.000000
 UP BOUND001  x...1431   1965.000000
 UP BOUND001  x...1432   1965.000000
 UP BOUND001  x...1433   1965.000000
 UP BOUND001  x...1434   1965.000000
 UP BOUND001  x...1435   1965.000000
 UP BOUND001  x...1436   1965.000000
 UP BOUND001  x...1437   1965.000000
 UP BOUND001  x...1438   1965.000000
 UP BOUND001  x...1439   1965.000000
 UP BOUND001  x...1440   1965.000000
 UP BOUND001  x...1441   1965.000000
 UP BOUND001  x...1442   1965.000000
 UP BOUND001  x...1443   1965.000000
 UP BOUND001  x...1444   1965.000000
 UP BOUND001  x...1445   1965.000000
 UP BOUND001  x...1446   1965.000000
 UP BOUND001  x...1447   1965.000000
 UP BOUND001  x...1448   1965.000000
 UP BOUND001  x...1449   1965.000000
 UP BOUND001  x...1450   1965.000000
 UP BOUND001  x...1451   1965.000000
 UP BOUND001  x...1452   1965.000000
 UP BOUND001  x...1453   1965.000000
 UP BOUND001  x...1454   1965.000000
 UP BOUND001  x...1455   1965.000000
 UP BOUND001  x...1456   1965.000000
 UP BOUND001  x...1457   1965.000000
 UP BOUND001  x...1458   1965.000000
 UP BOUND001  x...1459   1965.000000
 UP BOUND001  x...1460   1965.000000
 UP BOUND001  x...1461   1965.000000
 UP BOUND001  x...1462   1965.000000
 UP BOUND001  x...1463   1965.000000
 UP BOUND001  x...1464   1965.000000
 UP BOUND001  x...1465   1965.000000
 UP BOUND001  x...1466   1965.000000
 UP BOUND001  x...1467   1965.000000
 UP BOUND001  x...1468   1965.000000
 UP BOUND001  x...1469   1965.000000
 UP BOUND001  x...1470   1965.000000
 UP BOUND001  x...1471   1965.000000
 UP BOUND001  x...1472   1965.000000
 UP BOUND001  x...1473   1965.000000
 UP BOUND001  x...1474   1965.000000
 UP BOUND001  x...1475   1965.000000
 UP BOUND001  x...1476   1965.000000
 UP BOUND001  x...1477   1965.000000
 UP BOUND001  x...1478   1965.000000
 UP BOUND001  x...1479   1965.000000
 UP BOUND001  x...1480   1965.000000
 UP BOUND001  x...1481   1965.000000
 UP BOUND001  x...1482   1965.000000
 UP BOUND001  x...1483   1965.000000
 UP BOUND001  x...1484   1965.000000
 UP BOUND001  x...1485   1965.000000
 UP BOUND001  x...1486   1965.000000
 UP BOUND001  x...1487   1965.000000
 UP BOUND001  x...1488   1965.000000
 UP BOUND001  x...1489   1965.000000
 UP BOUND001  x...1490   1965.000000
 UP BOUND001  x...1491   1965.000000
 UP BOUND001  x...1492   1965.000000
 UP BOUND001  x...1493   1965.000000
 UP BOUND001  x...1494   1965.000000
 UP BOUND001  x...1495   1965.000000
 UP BOUND001  x...1496   1965.000000
 UP BOUND001  x...1497   1965.000000
 UP BOUND001  x...1498   1965.000000
 UP BOUND001  x...1499   1965.000000
 UP BOUND001  x...1500   1965.000000
 UP BOUND001  x...1501   1965.000000
 UP BOUND001  x...1502   1965.000000
 UP BOUND001  x...1503   1965.000000
 UP BOUND001  x...1504   1965.000000
 UP BOUND001  x...1505   1965.000000
 UP BOUND001  x...1506   1965.000000
 UP BOUND001  x...1507   1965.000000
 UP BOUND001  x...1508   1965.000000
 UP BOUND001  x...1509   1965.000000
 UP BOUND001  x...1510   1965.000000
 UP BOUND001  x...1511   1965.000000
 UP BOUND001  x...1512   1965.000000
 UP BOUND001  x...1513   1965.000000
 UP BOUND001  x...1514   1965.000000
 UP BOUND001  x...1515   1965.000000
 UP BOUND001  x...1516   1965.000000
 UP BOUND001  x...1517   1965.000000
 UP BOUND001  x...1518   1965.000000
 UP BOUND001  x...1519   1965.000000
 UP BOUND001  x...1520   1965.000000
 UP BOUND001  x...1521   1965.000000
 UP BOUND001  x...1522   1965.000000
 UP BOUND001  x...1523   1965.000000
 UP BOUND001  x...1524   1965.000000
 UP BOUND001  x...1525   1965.000000
 UP BOUND001  x...1526   1965.000000
 UP BOUND001  x...1527   1965.000000
 UP BOUND001  x...1528   1965.000000
 UP BOUND001  x...1529   1965.000000
 UP BOUND001  x...1530   1965.000000
 UP BOUND001  x...1531   1965.000000
 UP BOUND001  x...1532   1965.000000
 UP BOUND001  x...1533   1965.000000
 UP BOUND001  x...1534   1965.000000
 UP BOUND001  x...1535   1965.000000
 UP BOUND001  x...1536   1965.000000
 UP BOUND001  x...1537   1965.000000
 UP BOUND001  x...1538   1965.000000
 UP BOUND001  x...1539   1965.000000
 UP BOUND001  x...1540   1965.000000
 UP BOUND001  x...1541   1965.000000
 UP BOUND001  x...1542   1965.000000
 UP BOUND001  x...1543   1965.000000
 UP BOUND001  x...1544   1965.000000
 UP BOUND001  x...1545   1965.000000
 UP BOUND001  x...1546   1965.000000
 UP BOUND001  x...1547   1965.000000
 UP BOUND001  x...1548   1965.000000
 UP BOUND001  x...1549   1965.000000
 UP BOUND001  x...1550   1965.000000
 UP BOUND001  x...1551   1965.000000
 UP BOUND001  x...1552   1965.000000
 UP BOUND001  x...1553   1965.000000
 UP BOUND001  x...1554   1965.000000
 UP BOUND001  x...1555   1965.000000
 UP BOUND001  x...1556   1965.000000
 UP BOUND001  x...1557   1965.000000
 UP BOUND001  x...1558   1965.000000
 UP BOUND001  x...1559   1965.000000
 UP BOUND001  x...1560   1965.000000
 UP BOUND001  x...1561   1965.000000
 UP BOUND001  x...1562   1965.000000
 UP BOUND001  x...1563   1965.000000
 UP BOUND001  x...1564   1965.000000
 UP BOUND001  x...1565   1965.000000
 UP BOUND001  x...1566   1965.000000
 UP BOUND001  x...1567   1965.000000
 UP BOUND001  x...1568   1965.000000
 UP BOUND001  x...1569   1965.000000
 UP BOUND001  x...1570   1965.000000
 UP BOUND001  x...1571   1965.000000
 UP BOUND001  x...1572   1965.000000
 UP BOUND001  x...1573   1965.000000
 UP BOUND001  x...1574   1965.000000
 UP BOUND001  x...1575   1965.000000
 UP BOUND001  x...1576   1965.000000
 UP BOUND001  x...1577   1965.000000
 UP BOUND001  x...1578   1965.000000
 UP BOUND001  x...1579   1965.000000
 UP BOUND001  x...1580   1965.000000
 UP BOUND001  x...1581   1965.000000
 UP BOUND001  x...1582   1965.000000
 UP BOUND001  x...1583   1965.000000
 UP BOUND001  x...1584   1965.000000
 UP BOUND001  x...1585   1965.000000
 UP BOUND001  x...1586   1965.000000
 UP BOUND001  x...1587   1965.000000
 UP BOUND001  x...1588   1965.000000
 UP BOUND001  x...1589   1965.000000
 UP BOUND001  x...1590   1965.000000
 UP BOUND001  x...1591   1965.000000
 UP BOUND001  x...1592   1965.000000
 UP BOUND001  x...1593   1965.000000
 UP BOUND001  x...1594   1965.000000
 UP BOUND001  x...1595   1965.000000
 UP BOUND001  x...1596   1965.000000
 UP BOUND001  x...1597   1965.000000
 UP BOUND001  x...1598   1965.000000
 UP BOUND001  x...1599   1965.000000
 UP BOUND001  x...1600   1965.000000
 UP BOUND001  x...1601   1965.000000
 UP BOUND001  x...1602   1965.000000
 UP BOUND001  x...1603   1965.000000
 UP BOUND001  x...1604   1965.000000
 UP BOUND001  x...1605   1965.000000
 UP BOUND001  x...1606   1965.000000
 UP BOUND001  x...1607   1965.000000
 UP BOUND001  x...1608   1965.000000
 UP BOUND001  x...1609   1965.000000
 UP BOUND001  x...1610   1965.000000
 UP BOUND001  x...1611   1965.000000
 UP BOUND001  x...1612   1965.000000
 UP BOUND001  x...1613   1965.000000
 UP BOUND001  x...1614   1965.000000
 UP BOUND001  x...1615   1965.000000
 UP BOUND001  x...1616   1965.000000
 UP BOUND001  x...1617   1965.000000
 UP BOUND001  x...1618   1965.000000
 UP BOUND001  x...1619   1965.000000
 UP BOUND001  x...1620   1965.000000
 UP BOUND001  x...1621   1965.000000
 UP BOUND001  x...1622   1965.000000
 UP BOUND001  x...1623   1965.000000
 UP BOUND001  x...1624   1965.000000
 UP BOUND001  x...1625   1965.000000
 UP BOUND001  x...1626   1965.000000
 UP BOUND001  x...1627   1965.000000
 UP BOUND001  x...1628   1965.000000
 UP BOUND001  x...1629   1965.000000
 UP BOUND001  x...1630   1965.000000
 UP BOUND001  x...1631   1965.000000
 UP BOUND001  x...1632   1965.000000
 UP BOUND001  x...1633   1965.000000
 UP BOUND001  x...1634   1965.000000
 UP BOUND001  x...1635   1965.000000
 UP BOUND001  x...1636   1965.000000
 UP BOUND001  x...1637   1965.000000
 UP BOUND001  x...1638   1965.000000
 UP BOUND001  x...1639   1965.000000
 UP BOUND001  x...1640   1965.000000
 UP BOUND001  x...1641   1965.000000
 UP BOUND001  x...1642   1965.000000
 UP BOUND001  x...1643   1965.000000
 UP BOUND001  x...1644   1965.000000
 UP BOUND001  x...1645   1965.000000
 UP BOUND001  x...1646   1965.000000
 UP BOUND001  x...1647   1965.000000
 UP BOUND001  x...1648   1965.000000
 UP BOUND001  x...1649   1965.000000
 UP BOUND001  x...1650   1965.000000
 UP BOUND001  x...1651   1965.000000
 UP BOUND001  x...1652   1965.000000
 UP BOUND001  x...1653   1965.000000
 UP BOUND001  x...1654   1965.000000
 UP BOUND001  x...1655   1965.000000
 UP BOUND001  x...1656   1965.000000
 UP BOUND001  x...1657   1965.000000
 UP BOUND001  x...1658   1965.000000
 UP BOUND001  x...1659   1965.000000
 UP BOUND001  x...1660   1965.000000
 UP BOUND001  x...1661   1965.000000
 UP BOUND001  x...1662   1965.000000
 UP BOUND001  x...1663   1965.000000
 UP BOUND001  x...1664   1965.000000
 UP BOUND001  x...1665   1965.000000
 UP BOUND001  x...1666   1965.000000
 UP BOUND001  x...1667   1965.000000
 UP BOUND001  x...1668   1965.000000
 UP BOUND001  x...1669   1965.000000
 UP BOUND001  x...1670   1965.000000
 UP BOUND001  x...1671   1965.000000
 UP BOUND001  x...1672   1965.000000
 UP BOUND001  x...1673   1965.000000
 UP BOUND001  x...1674   1965.000000
 UP BOUND001  x...1675   1965.000000
 UP BOUND001  x...1676   1965.000000
 UP BOUND001  x...1677   1965.000000
 UP BOUND001  x...1678   1965.000000
 UP BOUND001  x...1679   1965.000000
 UP BOUND001  x...1680   1965.000000
 UP BOUND001  x...1681   1965.000000
 UP BOUND001  x...1682   1965.000000
 UP BOUND001  x...1683   1965.000000
 UP BOUND001  x...1684   1965.000000
 UP BOUND001  x...1685   1965.000000
 UP BOUND001  x...1686   1965.000000
 UP BOUND001  x...1687   1965.000000
 UP BOUND001  x...1688   1965.000000
 UP BOUND001  x...1689   1965.000000
 UP BOUND001  x...1690   1965.000000
 UP BOUND001  x...1691   1965.000000
 UP BOUND001  x...1692   1965.000000
 UP BOUND001  x...1693   1965.000000
 UP BOUND001  x...1694   1965.000000
 UP BOUND001  x...1695   1965.000000
 UP BOUND001  x...1696   1965.000000
 UP BOUND001  x...1697   1965.000000
 UP BOUND001  x...1698   1965.000000
 UP BOUND001  x...1699   1965.000000
 UP BOUND001  x...1700   1965.000000
 UP BOUND001  x...1701   1965.000000
 UP BOUND001  x...1702   1965.000000
 UP BOUND001  x...1703   1965.000000
 UP BOUND001  x...1704   1965.000000
 UP BOUND001  x...1705   1965.000000
 UP BOUND001  x...1706   1965.000000
 UP BOUND001  x...1707   1965.000000
 UP BOUND001  x...1708   1965.000000
 UP BOUND001  x...1709   1965.000000
 UP BOUND001  x...1710   1965.000000
 UP BOUND001  x...1711   1965.000000
 UP BOUND001  x...1712   1965.000000
 UP BOUND001  x...1713   1965.000000
 UP BOUND001  x...1714   1965.000000
 UP BOUND001  x...1715   1965.000000
 UP BOUND001  x...1716   1965.000000
 UP BOUND001  x...1717   1965.000000
 UP BOUND001  x...1718   1965.000000
 UP BOUND001  x...1719   1965.000000
 UP BOUND001  x...1720   1965.000000
 UP BOUND001  x...1721   1965.000000
 UP BOUND001  x...1722   1965.000000
 UP BOUND001  x...1723   1965.000000
 UP BOUND001  x...1724   1965.000000
 UP BOUND001  x...1725   1965.000000
 UP BOUND001  x...1726   1965.000000
 UP BOUND001  x...1727   1965.000000
 UP BOUND001  x...1728   1965.000000
 UP BOUND001  x...1729   1965.000000
 UP BOUND001  x...1730   1965.000000
 UP BOUND001  x...1731   1965.000000
 UP BOUND001  x...1732   1965.000000
 UP BOUND001  x...1733   1965.000000
 UP BOUND001  x...1734   1965.000000
 UP BOUND001  x...1735   1965.000000
 UP BOUND001  x...1736   1965.000000
 UP BOUND001  x...1737   1965.000000
 UP BOUND001  x...1738   1965.000000
 UP BOUND001  x...1739   1965.000000
 UP BOUND001  x...1740   1965.000000
 UP BOUND001  x...1741   1965.000000
 UP BOUND001  x...1742   1965.000000
 UP BOUND001  x...1743   1965.000000
 UP BOUND001  x...1744   1965.000000
 UP BOUND001  x...1745   1965.000000
 UP BOUND001  x...1746   1965.000000
 UP BOUND001  x...1747   1965.000000
 UP BOUND001  x...1748   1965.000000
 UP BOUND001  x...1749   1965.000000
 UP BOUND001  x...1750   1965.000000
 UP BOUND001  x...1751   1965.000000
 UP BOUND001  x...1752   1965.000000
 UP BOUND001  x...1753   1965.000000
 UP BOUND001  x...1754   1965.000000
 UP BOUND001  x...1755   1965.000000
 UP BOUND001  x...1756   1965.000000
 UP BOUND001  x...1757   1965.000000
 UP BOUND001  x...1758   1965.000000
 UP BOUND001  x...1759   1965.000000
 UP BOUND001  x...1760   1965.000000
 UP BOUND001  x...1761   1965.000000
 UP BOUND001  x...1762   1965.000000
 UP BOUND001  x...1763   1965.000000
 UP BOUND001  x...1764   1965.000000
 UP BOUND001  x...1765   1965.000000
 UP BOUND001  x...1766   1965.000000
 UP BOUND001  x...1767   1965.000000
 UP BOUND001  x...1768   1965.000000
 UP BOUND001  x...1769   1965.000000
 UP BOUND001  x...1770   1965.000000
 UP BOUND001  x...1771   1965.000000
 UP BOUND001  x...1772   1965.000000
 UP BOUND001  x...1773   1965.000000
 UP BOUND001  x...1774   1965.000000
 UP BOUND001  x...1775   1965.000000
 UP BOUND001  x...1776   1965.000000
 UP BOUND001  x...1777   1965.000000
 UP BOUND001  x...1778   1965.000000
 UP BOUND001  x...1779   1965.000000
 UP BOUND001  x...1780   1965.000000
 UP BOUND001  x...1781   1965.000000
 UP BOUND001  x...1782   1965.000000
 UP BOUND001  x...1783   1965.000000
 UP BOUND001  x...1784   1965.000000
 UP BOUND001  x...1785   1965.000000
 UP BOUND001  x...1786   1965.000000
 UP BOUND001  x...1787   1965.000000
 UP BOUND001  x...1788   1965.000000
 UP BOUND001  x...1789   1965.000000
 UP BOUND001  x...1790   1965.000000
 UP BOUND001  x...1791   1965.000000
 UP BOUND001  x...1792   1965.000000
 UP BOUND001  x...1793   1965.000000
 UP BOUND001  x...1794   1965.000000
 UP BOUND001  x...1795   1965.000000
 UP BOUND001  x...1796   1965.000000
 UP BOUND001  x...1797   1965.000000
 UP BOUND001  x...1798   1965.000000
 UP BOUND001  x...1799   1965.000000
 UP BOUND001  x...1800   1965.000000
 UP BOUND001  x...1801   1965.000000
 UP BOUND001  x...1802   1965.000000
 UP BOUND001  x...1803   1965.000000
 UP BOUND001  x...1804   1965.000000
 UP BOUND001  x...1805   1965.000000
 UP BOUND001  x...1806   1965.000000
 UP BOUND001  x...1807   1965.000000
 UP BOUND001  x...1808   1965.000000
 UP BOUND001  x...1809   1965.000000
 UP BOUND001  x...1810   1965.000000
 UP BOUND001  x...1811   1965.000000
 UP BOUND001  x...1812   1965.000000
 UP BOUND001  x...1813   1965.000000
 UP BOUND001  x...1814   1965.000000
 UP BOUND001  x...1815   1965.000000
 UP BOUND001  x...1816   1965.000000
 UP BOUND001  x...1817   1965.000000
 UP BOUND001  x...1818   1965.000000
 UP BOUND001  x...1819   1965.000000
 UP BOUND001  x...1820   1965.000000
 UP BOUND001  x...1821   1965.000000
 UP BOUND001  x...1822   1965.000000
 UP BOUND001  x...1823   1965.000000
 UP BOUND001  x...1824   1965.000000
 UP BOUND001  x...1825   1965.000000
 UP BOUND001  x...1826   1965.000000
 UP BOUND001  x...1827   1965.000000
 UP BOUND001  x...1828   1965.000000
 UP BOUND001  x...1829   1965.000000
 UP BOUND001  x...1830   1965.000000
 UP BOUND001  x...1831   1965.000000
 UP BOUND001  x...1832   1965.000000
 UP BOUND001  x...1833   1965.000000
 UP BOUND001  x...1834   1965.000000
 UP BOUND001  x...1835   1965.000000
 UP BOUND001  x...1836   1965.000000
 UP BOUND001  x...1837   1965.000000
 UP BOUND001  x...1838   1965.000000
 UP BOUND001  x...1839   1965.000000
 UP BOUND001  x...1840   1965.000000
 UP BOUND001  x...1841   1965.000000
 UP BOUND001  x...1842   1965.000000
 UP BOUND001  x...1843   1965.000000
 UP BOUND001  x...1844   1965.000000
 UP BOUND001  x...1845   1965.000000
 UP BOUND001  x...1846   1965.000000
 UP BOUND001  x...1847   1965.000000
 UP BOUND001  x...1848   1965.000000
 UP BOUND001  x...1849   1965.000000
 UP BOUND001  x...1850   1965.000000
 UP BOUND001  x...1851   1965.000000
 UP BOUND001  x...1852   1965.000000
 UP BOUND001  x...1853   1965.000000
 UP BOUND001  x...1854   1965.000000
 UP BOUND001  x...1855   1965.000000
 UP BOUND001  x...1856   1965.000000
 UP BOUND001  x...1857   1965.000000
 UP BOUND001  x...1858   1965.000000
 UP BOUND001  x...1859   1965.000000
 UP BOUND001  x...1860   1965.000000
 UP BOUND001  x...1861   1965.000000
 UP BOUND001  x...1862   1965.000000
 UP BOUND001  x...1863   1965.000000
 UP BOUND001  x...1864   1965.000000
 UP BOUND001  x...1865   1965.000000
 UP BOUND001  x...1866   1965.000000
 UP BOUND001  x...1867   1965.000000
 UP BOUND001  x...1868   1965.000000
 UP BOUND001  x...1869   1965.000000
 UP BOUND001  x...1870   1965.000000
 UP BOUND001  x...1871   1965.000000
 UP BOUND001  x...1872   1965.000000
 UP BOUND001  x...1873   1965.000000
 UP BOUND001  x...1874   1965.000000
 UP BOUND001  x...1875   1965.000000
 UP BOUND001  x...1876   1965.000000
 UP BOUND001  x...1877   1965.000000
 UP BOUND001  x...1878   1965.000000
 UP BOUND001  x...1879   1965.000000
 UP BOUND001  x...1880   1965.000000
 UP BOUND001  x...1881   1965.000000
 UP BOUND001  x...1882   1965.000000
 UP BOUND001  x...1883   1965.000000
 UP BOUND001  x...1884   1965.000000
 UP BOUND001  x...1885   1965.000000
 UP BOUND001  x...1886   1965.000000
 UP BOUND001  x...1887   1965.000000
 UP BOUND001  x...1888   1965.000000
 UP BOUND001  x...1889   1965.000000
 UP BOUND001  x...1890   1965.000000
 UP BOUND001  x...1891   1965.000000
 UP BOUND001  x...1892   1965.000000
 UP BOUND001  x...1893   1965.000000
 UP BOUND001  x...1894   1965.000000
 UP BOUND001  x...1895   1965.000000
 UP BOUND001  x...1896   1965.000000
 UP BOUND001  x...1897   1965.000000
 UP BOUND001  x...1898   1965.000000
 UP BOUND001  x...1899   1965.000000
 UP BOUND001  x...1900   1965.000000
 UP BOUND001  x...1901   1965.000000
 UP BOUND001  x...1902   1965.000000
 UP BOUND001  x...1903   1965.000000
 UP BOUND001  x...1904   1965.000000
 UP BOUND001  x...1905   1965.000000
 UP BOUND001  x...1906   1965.000000
 UP BOUND001  x...1907   1965.000000
 UP BOUND001  x...1908   1965.000000
 UP BOUND001  x...1909   1965.000000
 UP BOUND001  x...1910   1965.000000
 UP BOUND001  x...1911   1965.000000
 UP BOUND001  x...1912   1965.000000
 UP BOUND001  x...1913   1965.000000
 UP BOUND001  x...1914   1965.000000
 UP BOUND001  x...1915   1965.000000
 UP BOUND001  x...1916   1965.000000
 UP BOUND001  x...1917   1965.000000
 UP BOUND001  x...1918   1965.000000
 UP BOUND001  x...1919   1965.000000
 UP BOUND001  x...1920   1965.000000
 UP BOUND001  x...1921   1965.000000
 UP BOUND001  x...1922   1965.000000
 UP BOUND001  x...1923   1965.000000
 UP BOUND001  x...1924   1965.000000
 UP BOUND001  x...1925   1965.000000
 UP BOUND001  x...1926   1965.000000
 UP BOUND001  x...1927   1965.000000
 UP BOUND001  x...1928   1965.000000
 UP BOUND001  x...1929   1965.000000
 UP BOUND001  x...1930   1965.000000
 UP BOUND001  x...1931   1965.000000
 UP BOUND001  x...1932   1965.000000
 UP BOUND001  x...1933   1965.000000
 UP BOUND001  x...1934   1965.000000
 UP BOUND001  x...1935   1965.000000
 UP BOUND001  x...1936   1965.000000
 UP BOUND001  x...1937   1965.000000
 UP BOUND001  x...1938   1965.000000
 UP BOUND001  x...1939   1965.000000
 UP BOUND001  x...1940   1965.000000
 UP BOUND001  x...1941   1965.000000
 UP BOUND001  x...1942   1965.000000
 UP BOUND001  x...1943   1965.000000
 UP BOUND001  x...1944   1965.000000
 UP BOUND001  x...1945   1965.000000
 UP BOUND001  x...1946   1965.000000
 UP BOUND001  x...1947   1965.000000
 UP BOUND001  x...1948   1965.000000
 UP BOUND001  x...1949   1965.000000
 UP BOUND001  x...1950   1965.000000
 UP BOUND001  x...1951   1965.000000
 UP BOUND001  x...1952   1965.000000
 UP BOUND001  x...1953   1965.000000
 UP BOUND001  x...1954   1965.000000
 UP BOUND001  x...1955   1965.000000
 UP BOUND001  x...1956   1965.000000
 UP BOUND001  x...1957   1965.000000
 UP BOUND001  x...1958   1965.000000
 UP BOUND001  x...1959   1965.000000
 UP BOUND001  x...1960   1965.000000
 UP BOUND001  x...1961   1965.000000
 UP BOUND001  x...1962   1965.000000
 UP BOUND001  x...1963   1965.000000
 UP BOUND001  x...1964   1965.000000
 UP BOUND001  x...1965   1965.000000
 UP BOUND001  x...1966   1965.000000
 UP BOUND001  x...1967   1965.000000
 UP BOUND001  x...1968   1965.000000
 UP BOUND001  x...1969   1965.000000
 UP BOUND001  x...1970   1965.000000
 UP BOUND001  x...1971   1965.000000
 UP BOUND001  x...1972   1965.000000
 UP BOUND001  x...1973   1965.000000
 UP BOUND001  x...1974   1965.000000
 UP BOUND001  x...1975   1965.000000
 UP BOUND001  x...1976   1965.000000
 UP BOUND001  x...1977   1965.000000
 UP BOUND001  x...1978   1965.000000
 UP BOUND001  x...1979   1965.000000
 UP BOUND001  x...1980   1965.000000
 UP BOUND001  x...1981   1965.000000
 UP BOUND001  x...1982   1965.000000
 UP BOUND001  x...1983   1965.000000
 UP BOUND001  x...1984   1965.000000
 UP BOUND001  x...1985   1965.000000
 UP BOUND001  x...1986   1965.000000
 UP BOUND001  x...1987   1965.000000
 UP BOUND001  x...1988   1965.000000
 UP BOUND001  x...1989   1965.000000
 UP BOUND001  x...1990   1965.000000
 UP BOUND001  x...1991   1965.000000
 UP BOUND001  x...1992   1965.000000
 UP BOUND001  x...1993   1965.000000
 UP BOUND001  x...1994   1965.000000
 UP BOUND001  x...1995   1965.000000
 UP BOUND001  x...1996   1965.000000
 UP BOUND001  x...1997   1965.000000
 UP BOUND001  x...1998   1965.000000
 UP BOUND001  x...1999   1965.000000
 UP BOUND001  x...2000   1965.000000
 UP BOUND001  x...2001   1965.000000
 UP BOUND001  x...2002   1965.000000
 UP BOUND001  x...2003   1965.000000
 UP BOUND001  x...2004   1965.000000
 UP BOUND001  x...2005   1965.000000
 UP BOUND001  x...2006   1965.000000
 UP BOUND001  x...2007   1965.000000
 UP BOUND001  x...2008   1965.000000
 UP BOUND001  x...2009   1965.000000
 UP BOUND001  x...2010   1965.000000
 UP BOUND001  x...2011   1965.000000
 UP BOUND001  x...2012   1965.000000
 UP BOUND001  x...2013   1965.000000
 UP BOUND001  x...2014   1965.000000
 UP BOUND001  x...2015   1965.000000
 UP BOUND001  x...2016   1965.000000
 UP BOUND001  x...2017   1965.000000
 UP BOUND001  x...2018   1965.000000
 UP BOUND001  x...2019   1965.000000
 UP BOUND001  x...2020   1965.000000
 UP BOUND001  x...2021   1965.000000
 UP BOUND001  x...2022   1965.000000
 UP BOUND001  x...2023   1965.000000
 UP BOUND001  x...2024   1965.000000
 UP BOUND001  x...2025   1965.000000
 UP BOUND001  x...2026   1965.000000
 UP BOUND001  x...2027   1965.000000
 UP BOUND001  x...2028   1965.000000
 UP BOUND001  x...2029   1965.000000
 UP BOUND001  x...2030   1965.000000
 UP BOUND001  x...2031   1965.000000
 UP BOUND001  x...2032   1965.000000
 UP BOUND001  x...2033   1965.000000
 UP BOUND001  x...2034   1965.000000
 UP BOUND001  x...2035   1965.000000
 UP BOUND001  x...2036   1965.000000
 UP BOUND001  x...2037   1965.000000
 UP BOUND001  x...2038   1965.000000
 UP BOUND001  x...2039   1965.000000
 UP BOUND001  x...2040   1965.000000
 UP BOUND001  x...2041   1965.000000
 UP BOUND001  x...2042   1965.000000
 UP BOUND001  x...2043   1965.000000
 UP BOUND001  x...2044   1965.000000
 UP BOUND001  x...2045   1965.000000
 UP BOUND001  x...2046   1965.000000
 UP BOUND001  x...2047   1965.000000
 UP BOUND001  x...2048   1965.000000
 UP BOUND001  x...2049   1965.000000
 UP BOUND001  x...2050   1965.000000
 UP BOUND001  x...2051   1965.000000
 UP BOUND001  x...2052   1965.000000
 UP BOUND001  x...2053   1965.000000
 UP BOUND001  x...2054   1965.000000
 UP BOUND001  x...2055   1965.000000
 UP BOUND001  x...2056   1965.000000
 UP BOUND001  x...2057   1965.000000
 UP BOUND001  x...2058   1965.000000
 UP BOUND001  x...2059   1965.000000
 UP BOUND001  x...2060   1965.000000
 UP BOUND001  x...2061   1965.000000
 UP BOUND001  x...2062   1965.000000
 UP BOUND001  x...2063   1965.000000
 UP BOUND001  x...2064   1965.000000
 UP BOUND001  x...2065   1965.000000
 UP BOUND001  x...2066   1965.000000
 UP BOUND001  x...2067   1965.000000
 UP BOUND001  x...2068   1965.000000
 UP BOUND001  x...2069   1965.000000
 UP BOUND001  x...2070   1965.000000
 UP BOUND001  x...2071   1965.000000
 UP BOUND001  x...2072   1965.000000
 UP BOUND001  x...2073   1965.000000
 UP BOUND001  x...2074   1965.000000
 UP BOUND001  x...2075   1965.000000
 UP BOUND001  x...2076   1965.000000
 UP BOUND001  x...2077   1965.000000
 UP BOUND001  x...2078   1965.000000
 UP BOUND001  x...2079   1965.000000
 UP BOUND001  x...2080   1965.000000
 UP BOUND001  x...2081   1965.000000
 UP BOUND001  x...2082   1965.000000
 UP BOUND001  x...2083   1965.000000
 UP BOUND001  x...2084   1965.000000
 UP BOUND001  x...2085   1965.000000
 UP BOUND001  x...2086   1965.000000
 UP BOUND001  x...2087   1965.000000
 UP BOUND001  x...2088   1965.000000
 UP BOUND001  x...2089   1965.000000
 UP BOUND001  x...2090   1965.000000
 UP BOUND001  x...2091   1965.000000
 UP BOUND001  x...2092   1965.000000
 UP BOUND001  x...2093   1965.000000
 UP BOUND001  x...2094   1965.000000
 UP BOUND001  x...2095   1965.000000
 UP BOUND001  x...2096   1965.000000
 UP BOUND001  x...2097   1965.000000
 UP BOUND001  x...2098   1965.000000
 UP BOUND001  x...2099   1965.000000
 UP BOUND001  x...2100   1965.000000
 UP BOUND001  x...2101   1965.000000
 UP BOUND001  x...2102   1965.000000
 UP BOUND001  x...2103   1965.000000
 UP BOUND001  x...2104   1965.000000
 UP BOUND001  x...2105   1965.000000
 UP BOUND001  x...2106   1965.000000
 UP BOUND001  x...2107   1965.000000
 UP BOUND001  x...2108   1965.000000
 UP BOUND001  x...2109   1965.000000
 UP BOUND001  x...2110   1965.000000
 UP BOUND001  x...2111   1965.000000
 UP BOUND001  x...2112   1965.000000
 UP BOUND001  x...2113   1965.000000
 UP BOUND001  x...2114   1965.000000
 UP BOUND001  x...2115   1965.000000
 UP BOUND001  x...2116   1965.000000
 UP BOUND001  x...2117   1965.000000
 UP BOUND001  x...2118   1965.000000
 UP BOUND001  x...2119   1965.000000
 UP BOUND001  x...2120   1965.000000
 UP BOUND001  x...2121   1965.000000
 UP BOUND001  x...2122   1965.000000
 UP BOUND001  x...2123   1965.000000
 UP BOUND001  x...2124   1965.000000
 UP BOUND001  x...2125   1965.000000
 UP BOUND001  x...2126   1965.000000
 UP BOUND001  x...2127   1965.000000
 UP BOUND001  x...2128   1965.000000
 UP BOUND001  x...2129   1965.000000
 UP BOUND001  x...2130   1965.000000
 UP BOUND001  x...2131   1965.000000
 UP BOUND001  x...2132   1965.000000
 UP BOUND001  x...2133   1965.000000
 UP BOUND001  x...2134   1965.000000
 UP BOUND001  x...2135   1965.000000
 UP BOUND001  x...2136   1965.000000
 UP BOUND001  x...2137   1965.000000
 UP BOUND001  x...2138   1965.000000
 UP BOUND001  x...2139   1965.000000
 UP BOUND001  x...2140   1965.000000
 UP BOUND001  x...2141   1965.000000
 UP BOUND001  x...2142   1965.000000
 UP BOUND001  x...2143   1965.000000
 UP BOUND001  x...2144   1965.000000
 UP BOUND001  x...2145   1965.000000
 UP BOUND001  x...2146   1965.000000
 UP BOUND001  x...2147   1965.000000
 UP BOUND001  x...2148   1965.000000
 UP BOUND001  x...2149   1965.000000
 UP BOUND001  x...2150   1965.000000
 UP BOUND001  x...2151   1965.000000
 UP BOUND001  x...2152   1965.000000
 UP BOUND001  x...2153   1965.000000
 UP BOUND001  x...2154   1965.000000
 UP BOUND001  x...2155   1965.000000
 UP BOUND001  x...2156   1965.000000
 UP BOUND001  x...2157   1965.000000
 UP BOUND001  x...2158   1965.000000
 UP BOUND001  x...2159   1965.000000
 UP BOUND001  x...2160   1965.000000
 UP BOUND001  x...2161   1965.000000
 UP BOUND001  x...2162   1965.000000
 UP BOUND001  x...2163   1965.000000
 UP BOUND001  x...2164   1965.000000
 UP BOUND001  x...2165   1965.000000
 UP BOUND001  x...2166   1965.000000
 UP BOUND001  x...2167   1965.000000
 UP BOUND001  x...2168   1965.000000
 UP BOUND001  x...2169   1965.000000
 UP BOUND001  x...2170   1965.000000
 UP BOUND001  x...2171   1965.000000
 UP BOUND001  x...2172   1965.000000
 UP BOUND001  x...2173   1965.000000
 UP BOUND001  x...2174   1965.000000
 UP BOUND001  x...2175   1965.000000
 UP BOUND001  x...2176   1965.000000
 UP BOUND001  x...2177   1965.000000
 UP BOUND001  x...2178   1965.000000
 UP BOUND001  x...2179   1965.000000
 UP BOUND001  x...2180   1965.000000
 UP BOUND001  x...2181   1965.000000
 UP BOUND001  x...2182   1965.000000
 UP BOUND001  x...2183   1965.000000
 UP BOUND001  x...2184   1965.000000
 UP BOUND001  x...2185   1965.000000
 UP BOUND001  x...2186   1965.000000
 UP BOUND001  x...2187   1965.000000
 UP BOUND001  x...2188   1965.000000
 UP BOUND001  x...2189   1965.000000
 UP BOUND001  x...2190   1965.000000
 UP BOUND001  x...2191   1965.000000
 UP BOUND001  x...2192   1965.000000
 UP BOUND001  x...2193   1965.000000
 UP BOUND001  x...2194   1965.000000
 UP BOUND001  x...2195   1965.000000
 UP BOUND001  x...2196   1965.000000
 UP BOUND001  x...2197   1965.000000
 UP BOUND001  x...2198   1965.000000
 UP BOUND001  x...2199   1965.000000
 UP BOUND001  x...2200   1965.000000
 UP BOUND001  x...2201   1965.000000
 UP BOUND001  x...2202   1965.000000
 UP BOUND001  x...2203   1965.000000
 UP BOUND001  x...2204   1965.000000
 UP BOUND001  x...2205   1965.000000
 UP BOUND001  x...2206   1965.000000
 UP BOUND001  x...2207   1965.000000
 UP BOUND001  x...2208   1965.000000
 UP BOUND001  x...2209   1965.000000
 UP BOUND001  x...2210   1965.000000
 UP BOUND001  x...2211   1965.000000
 UP BOUND001  x...2212   1965.000000
 UP BOUND001  x...2213   1965.000000
 UP BOUND001  x...2214   1965.000000
 UP BOUND001  x...2215   1965.000000
 UP BOUND001  x...2216   1965.000000
 UP BOUND001  x...2217   1965.000000
 UP BOUND001  x...2218   1965.000000
 UP BOUND001  x...2219   1965.000000
 UP BOUND001  x...2220   1965.000000
 UP BOUND001  x...2221   1965.000000
 UP BOUND001  x...2222   1965.000000
 UP BOUND001  x...2223   1965.000000
 UP BOUND001  x...2224   1965.000000
 UP BOUND001  x...2225   1965.000000
 UP BOUND001  x...2226   1965.000000
 UP BOUND001  x...2227   1965.000000
 UP BOUND001  x...2228   1965.000000
 UP BOUND001  x...2229   1965.000000
 UP BOUND001  x...2230   1965.000000
 UP BOUND001  x...2231   1965.000000
 UP BOUND001  x...2232   1965.000000
 UP BOUND001  x...2233   1965.000000
 UP BOUND001  x...2234   1965.000000
 UP BOUND001  x...2235   1965.000000
 UP BOUND001  x...2236   1965.000000
 UP BOUND001  x...2237   1965.000000
 UP BOUND001  x...2238   1965.000000
 UP BOUND001  x...2239   1965.000000
 UP BOUND001  x...2240   1965.000000
 UP BOUND001  x...2241   1965.000000
 UP BOUND001  x...2242   1965.000000
 UP BOUND001  x...2243   1965.000000
 UP BOUND001  x...2244   1965.000000
 UP BOUND001  x...2245   1965.000000
 UP BOUND001  x...2246   1965.000000
 UP BOUND001  x...2247   1965.000000
 UP BOUND001  x...2248   1965.000000
 UP BOUND001  x...2249   1965.000000
 UP BOUND001  x...2250   1965.000000
 UP BOUND001  x...2251   1965.000000
 UP BOUND001  x...2252   1965.000000
 UP BOUND001  x...2253   1965.000000
 UP BOUND001  x...2254   1965.000000
 UP BOUND001  x...2255   1965.000000
 UP BOUND001  x...2256   1965.000000
 UP BOUND001  x...2257   1965.000000
 UP BOUND001  x...2258   1965.000000
 UP BOUND001  x...2259   1965.000000
 UP BOUND001  x...2260   1965.000000
 UP BOUND001  x...2261   1965.000000
 UP BOUND001  x...2262   1965.000000
 UP BOUND001  x...2263   1965.000000
 UP BOUND001  x...2264   1965.000000
 UP BOUND001  x...2265   1965.000000
 UP BOUND001  x...2266   1965.000000
 UP BOUND001  x...2267   1965.000000
 UP BOUND001  x...2268   1965.000000
 UP BOUND001  x...2269   1965.000000
 UP BOUND001  x...2270   1965.000000
 UP BOUND001  x...2271   1965.000000
 UP BOUND001  x...2272   1965.000000
 UP BOUND001  x...2273   1965.000000
 UP BOUND001  x...2274   1965.000000
 UP BOUND001  x...2275   1965.000000
 UP BOUND001  x...2276   1965.000000
 UP BOUND001  x...2277   1965.000000
 UP BOUND001  x...2278   1965.000000
 UP BOUND001  x...2279   1965.000000
 UP BOUND001  x...2280   1965.000000
 UP BOUND001  x...2281   1965.000000
 UP BOUND001  x...2282   1965.000000
 UP BOUND001  x...2283   1965.000000
 UP BOUND001  x...2284   1965.000000
 UP BOUND001  x...2285   1965.000000
 UP BOUND001  x...2286   1965.000000
 UP BOUND001  x...2287   1965.000000
 UP BOUND001  x...2288   1965.000000
 UP BOUND001  x...2289   1965.000000
 UP BOUND001  x...2290   1965.000000
 UP BOUND001  x...2291   1965.000000
 UP BOUND001  x...2292   1965.000000
 UP BOUND001  x...2293   1965.000000
 UP BOUND001  x...2294   1965.000000
 UP BOUND001  x...2295   1965.000000
 UP BOUND001  x...2296   1965.000000
 UP BOUND001  x...2297   1965.000000
 UP BOUND001  x...2298   1965.000000
 UP BOUND001  x...2299   1965.000000
 UP BOUND001  x...2300   1965.000000
 UP BOUND001  x...2301   1965.000000
 UP BOUND001  x...2302   1965.000000
 UP BOUND001  x...2303   1965.000000
 UP BOUND001  x...2304   1965.000000
 UP BOUND001  x...2305   1965.000000
 UP BOUND001  x...2306   1965.000000
 UP BOUND001  x...2307   1965.000000
 UP BOUND001  x...2308   1965.000000
 UP BOUND001  x...2309   1965.000000
 UP BOUND001  x...2310   1965.000000
 UP BOUND001  x...2311   1965.000000
 UP BOUND001  x...2312   1965.000000
 UP BOUND001  x...2313   1965.000000
 UP BOUND001  x...2314   1965.000000
 UP BOUND001  x...2315   1965.000000
 UP BOUND001  x...2316   1965.000000
 UP BOUND001  x...2317   1965.000000
 UP BOUND001  x...2318   1965.000000
 UP BOUND001  x...2319   1965.000000
 UP BOUND001  x...2320   1965.000000
 UP BOUND001  x...2321   1965.000000
 UP BOUND001  x...2322   1965.000000
 UP BOUND001  x...2323   1965.000000
 UP BOUND001  x...2324   1965.000000
 UP BOUND001  x...2325   1965.000000
 UP BOUND001  x...2326   1965.000000
 UP BOUND001  x...2327   1965.000000
 UP BOUND001  x...2328   1965.000000
 UP BOUND001  x...2329   1965.000000
 UP BOUND001  x...2330   1965.000000
 UP BOUND001  x...2331   1965.000000
 UP BOUND001  x...2332   1965.000000
 UP BOUND001  x...2333   1965.000000
 UP BOUND001  x...2334   1965.000000
 UP BOUND001  x...2335   1965.000000
 UP BOUND001  x...2336   1965.000000
 UP BOUND001  x...2337   1965.000000
 UP BOUND001  x...2338   1965.000000
 UP BOUND001  x...2339   1965.000000
 UP BOUND001  x...2340   1965.000000
 UP BOUND001  x...2341   1965.000000
 UP BOUND001  x...2342   1965.000000
 UP BOUND001  x...2343   1965.000000
 UP BOUND001  x...2344   1965.000000
 UP BOUND001  x...2345   1965.000000
 UP BOUND001  x...2346   1965.000000
 UP BOUND001  x...2347   1965.000000
 UP BOUND001  x...2348   1965.000000
 UP BOUND001  x...2349   1965.000000
 UP BOUND001  x...2350   1965.000000
 UP BOUND001  x...2351   1965.000000
 UP BOUND001  x...2352   1965.000000
 UP BOUND001  x...2353   1965.000000
 UP BOUND001  x...2354   1965.000000
 UP BOUND001  x...2355   1965.000000
 UP BOUND001  x...2356   1965.000000
 UP BOUND001  x...2357   1965.000000
 UP BOUND001  x...2358   1965.000000
 UP BOUND001  x...2359   1965.000000
 UP BOUND001  x...2360   1965.000000
 UP BOUND001  x...2361   1965.000000
 UP BOUND001  x...2362   1965.000000
 UP BOUND001  x...2363   1965.000000
 UP BOUND001  x...2364   1965.000000
 UP BOUND001  x...2365   1965.000000
 UP BOUND001  x...2366   1965.000000
 UP BOUND001  x...2367   1965.000000
 UP BOUND001  x...2368   1965.000000
 UP BOUND001  x...2369   1965.000000
 UP BOUND001  x...2370   1965.000000
 UP BOUND001  x...2371   1965.000000
 UP BOUND001  x...2372   1965.000000
 UP BOUND001  x...2373   1965.000000
 UP BOUND001  x...2374   1965.000000
 UP BOUND001  x...2375   1965.000000
 UP BOUND001  x...2376   1965.000000
 UP BOUND001  x...2377   1965.000000
 UP BOUND001  x...2378   1965.000000
 UP BOUND001  x...2379   1965.000000
 UP BOUND001  x...2380   1965.000000
 UP BOUND001  x...2381   1965.000000
 UP BOUND001  x...2382   1965.000000
 UP BOUND001  x...2383   1965.000000
 UP BOUND001  x...2384   1965.000000
 UP BOUND001  x...2385   1965.000000
 UP BOUND001  x...2386   1965.000000
 UP BOUND001  x...2387   1965.000000
 UP BOUND001  x...2388   1965.000000
 UP BOUND001  x...2389   1965.000000
 UP BOUND001  x...2390   1965.000000
 UP BOUND001  x...2391   1965.000000
 UP BOUND001  x...2392   1965.000000
 UP BOUND001  x...2393   1965.000000
 UP BOUND001  x...2394   1965.000000
 UP BOUND001  x...2395   1965.000000
 UP BOUND001  x...2396   1965.000000
 UP BOUND001  x...2397   1965.000000
 UP BOUND001  x...2398   1965.000000
 UP BOUND001  x...2399   1965.000000
 UP BOUND001  x...2400   1965.000000
 UP BOUND001  x...2401   1965.000000
 UP BOUND001  x...2402   1965.000000
 UP BOUND001  x...2403   1965.000000
 UP BOUND001  x...2404   1965.000000
 UP BOUND001  x...2405   1965.000000
 UP BOUND001  x...2406   1965.000000
 UP BOUND001  x...2407   1965.000000
 UP BOUND001  x...2408   1965.000000
 UP BOUND001  x...2409   1965.000000
 UP BOUND001  x...2410   1965.000000
 UP BOUND001  x...2411   1965.000000
 UP BOUND001  x...2412   1965.000000
 UP BOUND001  x...2413   1965.000000
 UP BOUND001  x...2414   1965.000000
 UP BOUND001  x...2415   1965.000000
 UP BOUND001  x...2416   1965.000000
 UP BOUND001  x...2417   1965.000000
 UP BOUND001  x...2418   1965.000000
 UP BOUND001  x...2419   1965.000000
 UP BOUND001  x...2420   1965.000000
 UP BOUND001  x...2421   1965.000000
 UP BOUND001  x...2422   1965.000000
 UP BOUND001  x...2423   1965.000000
 UP BOUND001  x...2424   1965.000000
 UP BOUND001  x...2425   1965.000000
 UP BOUND001  x...2426   1965.000000
 UP BOUND001  x...2427   1965.000000
 UP BOUND001  x...2428   1965.000000
 UP BOUND001  x...2429   1965.000000
 UP BOUND001  x...2430   1965.000000
 UP BOUND001  x...2431   1965.000000
 UP BOUND001  x...2432   1965.000000
 UP BOUND001  x...2433   1965.000000
 UP BOUND001  x...2434   1965.000000
 UP BOUND001  x...2435   1965.000000
 UP BOUND001  x...2436   1965.000000
 UP BOUND001  x...2437   1965.000000
 UP BOUND001  x...2438   1965.000000
 UP BOUND001  x...2439   1965.000000
 UP BOUND001  x...2440   1965.000000
 UP BOUND001  x...2441   1965.000000
 UP BOUND001  x...2442   1965.000000
 UP BOUND001  x...2443   1965.000000
 UP BOUND001  x...2444   1965.000000
 UP BOUND001  x...2445   1965.000000
 UP BOUND001  x...2446   1965.000000
 UP BOUND001  x...2447   1965.000000
 UP BOUND001  x...2448   1965.000000
 UP BOUND001  x...2449   1965.000000
 UP BOUND001  x...2450   1965.000000
 UP BOUND001  x...2451   1965.000000
 UP BOUND001  x...2452   1965.000000
 UP BOUND001  x...2453   1965.000000
 UP BOUND001  x...2454   1965.000000
 UP BOUND001  x...2455   1965.000000
 UP BOUND001  x...2456   1965.000000
 UP BOUND001  x...2457   1965.000000
 UP BOUND001  x...2458   1965.000000
 UP BOUND001  x...2459   1965.000000
 UP BOUND001  x...2460   1965.000000
 UP BOUND001  x...2461   1965.000000
 UP BOUND001  x...2462   1965.000000
 UP BOUND001  x...2463   1965.000000
 UP BOUND001  x...2464   1965.000000
 UP BOUND001  x...2465   1965.000000
 UP BOUND001  x...2466   1965.000000
 UP BOUND001  x...2467   1965.000000
 UP BOUND001  x...2468   1965.000000
 UP BOUND001  x...2469   1965.000000
 UP BOUND001  x...2470   1965.000000
 UP BOUND001  x...2471   1965.000000
 UP BOUND001  x...2472   1965.000000
 UP BOUND001  x...2473   1965.000000
 UP BOUND001  x...2474   1965.000000
 UP BOUND001  x...2475   1965.000000
 UP BOUND001  x...2476   1965.000000
 UP BOUND001  x...2477   1965.000000
 UP BOUND001  x...2478   1965.000000
 UP BOUND001  x...2479   1965.000000
 UP BOUND001  x...2480   1965.000000
 UP BOUND001  x...2481   1965.000000
 UP BOUND001  x...2482   1965.000000
 UP BOUND001  x...2483   1965.000000
 UP BOUND001  x...2484   1965.000000
 UP BOUND001  x...2485   1965.000000
 UP BOUND001  x...2486   1965.000000
 UP BOUND001  x...2487   1965.000000
 UP BOUND001  x...2488   1965.000000
 UP BOUND001  x...2489   1965.000000
 UP BOUND001  x...2490   1965.000000
 UP BOUND001  x...2491   1965.000000
 UP BOUND001  x...2492   1965.000000
 UP BOUND001  x...2493   1965.000000
 UP BOUND001  x...2494   1965.000000
 UP BOUND001  x...2495   1965.000000
 UP BOUND001  x...2496   1965.000000
 UP BOUND001  x...2497   1965.000000
 UP BOUND001  x...2498   1965.000000
 UP BOUND001  x...2499   1965.000000
 UP BOUND001  x...2500   1965.000000
 UP BOUND001  x...2501   1965.000000
 UP BOUND001  x...2502   1965.000000
 UP BOUND001  x...2503   1965.000000
 UP BOUND001  x...2504   1965.000000
 UP BOUND001  x...2505   1965.000000
 UP BOUND001  x...2506   1965.000000
 UP BOUND001  x...2507   1965.000000
 UP BOUND001  x...2508   1965.000000
 UP BOUND001  x...2509   1965.000000
 UP BOUND001  x...2510   1965.000000
 UP BOUND001  x...2511   1965.000000
 UP BOUND001  x...2512   1965.000000
 UP BOUND001  x...2513   1965.000000
 UP BOUND001  x...2514   1965.000000
 UP BOUND001  x...2515   1965.000000
 UP BOUND001  x...2516   1965.000000
 UP BOUND001  x...2517   1965.000000
 UP BOUND001  x...2518   1965.000000
 UP BOUND001  x...2519   1965.000000
 UP BOUND001  x...2520   1965.000000
 UP BOUND001  x...2521   1965.000000
 UP BOUND001  x...2522   1965.000000
 UP BOUND001  x...2523   1965.000000
 UP BOUND001  x...2524   1965.000000
 UP BOUND001  x...2525   1965.000000
 UP BOUND001  x...2526   1965.000000
 UP BOUND001  x...2527   1965.000000
 UP BOUND001  x...2528   1965.000000
 UP BOUND001  x...2529   1965.000000
 UP BOUND001  x...2530   1965.000000
 UP BOUND001  x...2531   1965.000000
 UP BOUND001  x...2532   1965.000000
 UP BOUND001  x...2533   1965.000000
 UP BOUND001  x...2534   1965.000000
 UP BOUND001  x...2535   1965.000000
 UP BOUND001  x...2536   1965.000000
 UP BOUND001  x...2537   1965.000000
 UP BOUND001  x...2538   1965.000000
 UP BOUND001  x...2539   1965.000000
 UP BOUND001  x...2540   1965.000000
 UP BOUND001  x...2541   1965.000000
 UP BOUND001  x...2542   1965.000000
 UP BOUND001  x...2543   1965.000000
 UP BOUND001  x...2544   1965.000000
 UP BOUND001  x...2545   1965.000000
 UP BOUND001  x...2546   1965.000000
 UP BOUND001  x...2547   1965.000000
 UP BOUND001  x...2548   1965.000000
 UP BOUND001  x...2549   1965.000000
 UP BOUND001  x...2550   1965.000000
 UP BOUND001  x...2551   1965.000000
 UP BOUND001  x...2552   1965.000000
 UP BOUND001  x...2553   1965.000000
 UP BOUND001  x...2554   1965.000000
 UP BOUND001  x...2555   1965.000000
 UP BOUND001  x...2556   1965.000000
 UP BOUND001  x...2557   1965.000000
 UP BOUND001  x...2558   1965.000000
 UP BOUND001  x...2559   1965.000000
 UP BOUND001  x...2560   1965.000000
 UP BOUND001  x...2561   1965.000000
 UP BOUND001  x...2562   1965.000000
 UP BOUND001  x...2563   1965.000000
 UP BOUND001  x...2564   1965.000000
 UP BOUND001  x...2565   1965.000000
 UP BOUND001  x...2566   1965.000000
 UP BOUND001  x...2567   1965.000000
 UP BOUND001  x...2568   1965.000000
 UP BOUND001  x...2569   1965.000000
 UP BOUND001  x...2570   1965.000000
 UP BOUND001  x...2571   1965.000000
 UP BOUND001  x...2572   1965.000000
 UP BOUND001  x...2573   1965.000000
 UP BOUND001  x...2574   1965.000000
 UP BOUND001  x...2575   1965.000000
 UP BOUND001  x...2576   1965.000000
 UP BOUND001  x...2577   1965.000000
 UP BOUND001  x...2578   1965.000000
 UP BOUND001  x...2579   1965.000000
 UP BOUND001  x...2580   1965.000000
 UP BOUND001  x...2581   1965.000000
 UP BOUND001  x...2582   1965.000000
 UP BOUND001  x...2583   1965.000000
 UP BOUND001  x...2584   1965.000000
 UP BOUND001  x...2585   1965.000000
 UP BOUND001  x...2586   1965.000000
 UP BOUND001  x...2587   1965.000000
 UP BOUND001  x...2588   1965.000000
 UP BOUND001  x...2589   1965.000000
 UP BOUND001  x...2590   1965.000000
 UP BOUND001  x...2591   1965.000000
 UP BOUND001  x...2592   1965.000000
 UP BOUND001  x...2593   1965.000000
 UP BOUND001  x...2594   1965.000000
 UP BOUND001  x...2595   1965.000000
 UP BOUND001  x...2596   1965.000000
 UP BOUND001  x...2597   1965.000000
 UP BOUND001  x...2598   1965.000000
 UP BOUND001  x...2599   1965.000000
 UP BOUND001  x...2600   1965.000000
 UP BOUND001  x...2601   1965.000000
 UP BOUND001  x...2602   1965.000000
 UP BOUND001  x...2603   1965.000000
 UP BOUND001  x...2604   1965.000000
 UP BOUND001  x...2605   1965.000000
 UP BOUND001  x...2606   1965.000000
 UP BOUND001  x...2607   1965.000000
 UP BOUND001  x...2608   1965.000000
 UP BOUND001  x...2609   1965.000000
 UP BOUND001  x...2610   1965.000000
 UP BOUND001  x...2611   1965.000000
 UP BOUND001  x...2612   1965.000000
 UP BOUND001  x...2613   1965.000000
 UP BOUND001  x...2614   1965.000000
 UP BOUND001  x...2615   1965.000000
 UP BOUND001  x...2616   1965.000000
 UP BOUND001  x...2617   1965.000000
 UP BOUND001  x...2618   1965.000000
 UP BOUND001  x...2619   1965.000000
 UP BOUND001  x...2620   1965.000000
 UP BOUND001  x...2621   1965.000000
 UP BOUND001  x...2622   1965.000000
 UP BOUND001  x...2623   1965.000000
 UP BOUND001  x...2624   1965.000000
 UP BOUND001  x...2625   1965.000000
 UP BOUND001  x...2626   1965.000000
 UP BOUND001  x...2627   1965.000000
 UP BOUND001  x...2628   1965.000000
 UP BOUND001  x...2629   1965.000000
 UP BOUND001  x...2630   1965.000000
 UP BOUND001  x...2631   1965.000000
 UP BOUND001  x...2632   1965.000000
 UP BOUND001  x...2633   1965.000000
 UP BOUND001  x...2634   1965.000000
 UP BOUND001  x...2635   1965.000000
 UP BOUND001  x...2636   1965.000000
 UP BOUND001  x...2637   1965.000000
 UP BOUND001  x...2638   1965.000000
 UP BOUND001  x...2639   1965.000000
 UP BOUND001  x...2640   1965.000000
 UP BOUND001  x...2641   1965.000000
 UP BOUND001  x...2642   1965.000000
 UP BOUND001  x...2643   1965.000000
 UP BOUND001  x...2644   1965.000000
 UP BOUND001  x...2645   1965.000000
 UP BOUND001  x...2646   1965.000000
 UP BOUND001  x...2647   1965.000000
 UP BOUND001  x...2648   1965.000000
 UP BOUND001  x...2649   1965.000000
 UP BOUND001  x...2650   1965.000000
 UP BOUND001  x...2651   1965.000000
 UP BOUND001  x...2652   1965.000000
 UP BOUND001  x...2653   1965.000000
 UP BOUND001  x...2654   1965.000000
 UP BOUND001  x...2655   1965.000000
 UP BOUND001  x...2656   1965.000000
 UP BOUND001  x...2657   1965.000000
 UP BOUND001  x...2658   1965.000000
 UP BOUND001  x...2659   1965.000000
 UP BOUND001  x...2660   1965.000000
 UP BOUND001  x...2661   1965.000000
 UP BOUND001  x...2662   1965.000000
 UP BOUND001  x...2663   1965.000000
 UP BOUND001  x...2664   1965.000000
 UP BOUND001  x...2665   1965.000000
 UP BOUND001  x...2666   1965.000000
 UP BOUND001  x...2667   1965.000000
 UP BOUND001  x...2668   1965.000000
 UP BOUND001  x...2669   1965.000000
 UP BOUND001  x...2670   1965.000000
 UP BOUND001  x...2671   1965.000000
 UP BOUND001  x...2672   1965.000000
 UP BOUND001  x...2673   1965.000000
 UP BOUND001  x...2674   1965.000000
 UP BOUND001  x...2675   1965.000000
 UP BOUND001  x...2676   1965.000000
 UP BOUND001  x...2677   1965.000000
 UP BOUND001  x...2678   1965.000000
 UP BOUND001  x...2679   1965.000000
 UP BOUND001  x...2680   1965.000000
 UP BOUND001  x...2681   1965.000000
 UP BOUND001  x...2682   1965.000000
 UP BOUND001  x...2683   1965.000000
 UP BOUND001  x...2684   1965.000000
 UP BOUND001  x...2685   1965.000000
 UP BOUND001  x...2686   1965.000000
 UP BOUND001  x...2687   1965.000000
 UP BOUND001  x...2688   1965.000000
 UP BOUND001  x...2689   1965.000000
 UP BOUND001  x...2690   1965.000000
 UP BOUND001  x...2691   1965.000000
 UP BOUND001  x...2692   1965.000000
 UP BOUND001  x...2693   1965.000000
 UP BOUND001  x...2694   1965.000000
 UP BOUND001  x...2695   1965.000000
 UP BOUND001  x...2696   1965.000000
 UP BOUND001  x...2697   1965.000000
 UP BOUND001  x...2698   1965.000000
 UP BOUND001  x...2699   1965.000000
 UP BOUND001  x...2700   1965.000000
 UP BOUND001  x...2701   1965.000000
 UP BOUND001  x...2702   1965.000000
 UP BOUND001  x...2703   1965.000000
 UP BOUND001  x...2704   1965.000000
 UP BOUND001  x...2705   1965.000000
 UP BOUND001  x...2706   1965.000000
 UP BOUND001  x...2707   1965.000000
 UP BOUND001  x...2708   1965.000000
 UP BOUND001  x...2709   1965.000000
 UP BOUND001  x...2710   1965.000000
 UP BOUND001  x...2711   1965.000000
 UP BOUND001  x...2712   1965.000000
 UP BOUND001  x...2713   1965.000000
 UP BOUND001  x...2714   1965.000000
 UP BOUND001  x...2715   1965.000000
 UP BOUND001  x...2716   1965.000000
 UP BOUND001  x...2717   1965.000000
 UP BOUND001  x...2718   1965.000000
 UP BOUND001  x...2719   1965.000000
 UP BOUND001  x...2720   1965.000000
 UP BOUND001  x...2721   1965.000000
 UP BOUND001  x...2722   1965.000000
 UP BOUND001  x...2723   1965.000000
 UP BOUND001  x...2724   1965.000000
 UP BOUND001  x...2725   1965.000000
 UP BOUND001  x...2726   1965.000000
 UP BOUND001  x...2727   1965.000000
 UP BOUND001  x...2728   1965.000000
 UP BOUND001  x...2729   1965.000000
 UP BOUND001  x...2730   1965.000000
 UP BOUND001  x...2731   1965.000000
 UP BOUND001  x...2732   1965.000000
 UP BOUND001  x...2733   1965.000000
 UP BOUND001  x...2734   1965.000000
 UP BOUND001  x...2735   1965.000000
 UP BOUND001  x...2736   1965.000000
 UP BOUND001  x...2737   1965.000000
 UP BOUND001  x...2738   1965.000000
 UP BOUND001  x...2739   1965.000000
 UP BOUND001  x...2740   1965.000000
 UP BOUND001  x...2741   1965.000000
 UP BOUND001  x...2742   1965.000000
 UP BOUND001  x...2743   1965.000000
 UP BOUND001  x...2744   1965.000000
 UP BOUND001  x...2745   1965.000000
 UP BOUND001  x...2746   1965.000000
 UP BOUND001  x...2747   1965.000000
 UP BOUND001  x...2748   1965.000000
 UP BOUND001  x...2749   1965.000000
 UP BOUND001  x...2750   1965.000000
 UP BOUND001  x...2751   1965.000000
 UP BOUND001  x...2752   1965.000000
 UP BOUND001  x...2753   1965.000000
 UP BOUND001  x...2754   1965.000000
 UP BOUND001  x...2755   1965.000000
 UP BOUND001  x...2756   1965.000000
 UP BOUND001  x...2757   1965.000000
 UP BOUND001  x...2758   1965.000000
 UP BOUND001  x...2759   1965.000000
 UP BOUND001  x...2760   1965.000000
 UP BOUND001  x...2761   1965.000000
 UP BOUND001  x...2762   1965.000000
 UP BOUND001  x...2763   1965.000000
 UP BOUND001  x...2764   1965.000000
 UP BOUND001  x...2765   1965.000000
 UP BOUND001  x...2766   1965.000000
 UP BOUND001  x...2767   1965.000000
 UP BOUND001  x...2768   1965.000000
 UP BOUND001  x...2769   1965.000000
 UP BOUND001  x...2770   1965.000000
 UP BOUND001  x...2771   1965.000000
 UP BOUND001  x...2772   1965.000000
 UP BOUND001  x...2773   1965.000000
 UP BOUND001  x...2774   1965.000000
 UP BOUND001  x...2775   1965.000000
 UP BOUND001  x...2776   1965.000000
 UP BOUND001  x...2777   1965.000000
 UP BOUND001  x...2778   1965.000000
 UP BOUND001  x...2779   1965.000000
 UP BOUND001  x...2780   1965.000000
 UP BOUND001  x...2781   1965.000000
 UP BOUND001  x...2782   1965.000000
 UP BOUND001  x...2783   1965.000000
 UP BOUND001  x...2784   1965.000000
 UP BOUND001  x...2785   1965.000000
 UP BOUND001  x...2786   1965.000000
 UP BOUND001  x...2787   1965.000000
 UP BOUND001  x...2788   1965.000000
 UP BOUND001  x...2789   1965.000000
 UP BOUND001  x...2790   1965.000000
 UP BOUND001  x...2791   1965.000000
 UP BOUND001  x...2792   1965.000000
 UP BOUND001  x...2793   1965.000000
 UP BOUND001  x...2794   1965.000000
 UP BOUND001  x...2795   1965.000000
 UP BOUND001  x...2796   1965.000000
 UP BOUND001  x...2797   1965.000000
 UP BOUND001  x...2798   1965.000000
 UP BOUND001  x...2799   1965.000000
 UP BOUND001  x...2800   1965.000000
 UP BOUND001  x...2801   1965.000000
 UP BOUND001  x...2802   1965.000000
 UP BOUND001  x...2803   1965.000000
 UP BOUND001  x...2804   1965.000000
 UP BOUND001  x...2805   1965.000000
 UP BOUND001  x...2806   1965.000000
 UP BOUND001  x...2807   1965.000000
 UP BOUND001  x...2808   1965.000000
 UP BOUND001  x...2809   1965.000000
 UP BOUND001  x...2810   1965.000000
 UP BOUND001  x...2811   1965.000000
 UP BOUND001  x...2812   1965.000000
 UP BOUND001  x...2813   1965.000000
 UP BOUND001  x...2814   1965.000000
 UP BOUND001  x...2815   1965.000000
 UP BOUND001  x...2816   1965.000000
 UP BOUND001  x...2817   1965.000000
 UP BOUND001  x...2818   1965.000000
 UP BOUND001  x...2819   1965.000000
 UP BOUND001  x...2820   1965.000000
 UP BOUND001  x...2821   1965.000000
 UP BOUND001  x...2822   1965.000000
 UP BOUND001  x...2823   1965.000000
 UP BOUND001  x...2824   1965.000000
 UP BOUND001  x...2825   1965.000000
 UP BOUND001  x...2826   1965.000000
 UP BOUND001  x...2827   1965.000000
 UP BOUND001  x...2828   1965.000000
 UP BOUND001  x...2829   1965.000000
 UP BOUND001  x...2830   1965.000000
 UP BOUND001  x...2831   1965.000000
 UP BOUND001  x...2832   1965.000000
 UP BOUND001  x...2833   1965.000000
 UP BOUND001  x...2834   1965.000000
 UP BOUND001  x...2835   1965.000000
 UP BOUND001  x...2836   1965.000000
 UP BOUND001  x...2837   1965.000000
 UP BOUND001  x...2838   1965.000000
 UP BOUND001  x...2839   1965.000000
 UP BOUND001  x...2840   1965.000000
 UP BOUND001  x...2841   1965.000000
 UP BOUND001  x...2842   1965.000000
 UP BOUND001  x...2843   1965.000000
 UP BOUND001  x...2844   1965.000000
 UP BOUND001  x...2845   1965.000000
 UP BOUND001  x...2846   1965.000000
 UP BOUND001  x...2847   1965.000000
 UP BOUND001  x...2848   1965.000000
 UP BOUND001  x...2849   1965.000000
 UP BOUND001  x...2850   1965.000000
 UP BOUND001  x...2851   1965.000000
 UP BOUND001  x...2852   1965.000000
 UP BOUND001  x...2853   1965.000000
 UP BOUND001  x...2854   1965.000000
 UP BOUND001  x...2855   1965.000000
 UP BOUND001  x...2856   1965.000000
 UP BOUND001  x...2857   1965.000000
 UP BOUND001  x...2858   1965.000000
 UP BOUND001  x...2859   1965.000000
 UP BOUND001  x...2860   1965.000000
 UP BOUND001  x...2861   1965.000000
 UP BOUND001  x...2862   1965.000000
 UP BOUND001  x...2863   1965.000000
 UP BOUND001  x...2864   1965.000000
 UP BOUND001  x...2865   1965.000000
 UP BOUND001  x...2866   1965.000000
 UP BOUND001  x...2867   1965.000000
 UP BOUND001  x...2868   1965.000000
 UP BOUND001  x...2869   1965.000000
 UP BOUND001  x...2870   1965.000000
 UP BOUND001  x...2871   1965.000000
 UP BOUND001  x...2872   1965.000000
 UP BOUND001  x...2873   1965.000000
 UP BOUND001  x...2874   1965.000000
 UP BOUND001  x...2875   1965.000000
 UP BOUND001  x...2876   1965.000000
 UP BOUND001  x...2877   1965.000000
 UP BOUND001  x...2878   1965.000000
 UP BOUND001  x...2879   1965.000000
 UP BOUND001  x...2880   1965.000000
 UP BOUND001  x...2881   1965.000000
 UP BOUND001  x...2882   1965.000000
 UP BOUND001  x...2883   1965.000000
 UP BOUND001  x...2884   1965.000000
 UP BOUND001  x...2885   1965.000000
 UP BOUND001  x...2886   1965.000000
 UP BOUND001  x...2887   1965.000000
 UP BOUND001  x...2888   1965.000000
 UP BOUND001  x...2889   1965.000000
 UP BOUND001  x...2890   1965.000000
 UP BOUND001  x...2891   1965.000000
 UP BOUND001  x...2892   1965.000000
 UP BOUND001  x...2893   1965.000000
 UP BOUND001  x...2894   1965.000000
 UP BOUND001  x...2895   1965.000000
 UP BOUND001  x...2896   1965.000000
 UP BOUND001  x...2897   1965.000000
 UP BOUND001  x...2898   1965.000000
 UP BOUND001  x...2899   1965.000000
 UP BOUND001  x...2900   1965.000000
 UP BOUND001  x...2901   1965.000000
 UP BOUND001  x...2902   1965.000000
 UP BOUND001  x...2903   1965.000000
 UP BOUND001  x...2904   1965.000000
 UP BOUND001  x...2905   1965.000000
 UP BOUND001  x...2906   1965.000000
 UP BOUND001  x...2907   1965.000000
 UP BOUND001  x...2908   1965.000000
 UP BOUND001  x...2909   1965.000000
 UP BOUND001  x...2910   1965.000000
 UP BOUND001  x...2911   1965.000000
 UP BOUND001  x...2912   1965.000000
 UP BOUND001  x...2913   1965.000000
 UP BOUND001  x...2914   1965.000000
 UP BOUND001  x...2915   1965.000000
 UP BOUND001  x...2916   1965.000000
 UP BOUND001  x...2917   1965.000000
 UP BOUND001  x...2918   1965.000000
 UP BOUND001  x...2919   1965.000000
 UP BOUND001  x...2920   1965.000000
 UP BOUND001  x...2921   1965.000000
 UP BOUND001  x...2922   1965.000000
 UP BOUND001  x...2923   1965.000000
 UP BOUND001  x...2924   1965.000000
 UP BOUND001  x...2925   1965.000000
 UP BOUND001  x...2926   1965.000000
 UP BOUND001  x...2927   1965.000000
 UP BOUND001  x...2928   1965.000000
 UP BOUND001  x...2929   1965.000000
 UP BOUND001  x...2930   1965.000000
 UP BOUND001  x...2931   1965.000000
 UP BOUND001  x...2932   1965.000000
 UP BOUND001  x...2933   1965.000000
 UP BOUND001  x...2934   1965.000000
 UP BOUND001  x...2935   1965.000000
 UP BOUND001  x...2936   1965.000000
 UP BOUND001  x...2937   1965.000000
 UP BOUND001  x...2938   1965.000000
 UP BOUND001  x...2939   1965.000000
 UP BOUND001  x...2940   1965.000000
 UP BOUND001  x...2941   1965.000000
 UP BOUND001  x...2942   1965.000000
 UP BOUND001  x...2943   1965.000000
 UP BOUND001  x...2944   1965.000000
 UP BOUND001  x...2945   1965.000000
 UP BOUND001  x...2946   1965.000000
 UP BOUND001  x...2947   1965.000000
 UP BOUND001  x...2948   1965.000000
 UP BOUND001  x...2949   1965.000000
 UP BOUND001  x...2950   1965.000000
 UP BOUND001  x...2951   1965.000000
 UP BOUND001  x...2952   1965.000000
 UP BOUND001  x...2953   1965.000000
 UP BOUND001  x...2954   1965.000000
 UP BOUND001  x...2955   1965.000000
 UP BOUND001  x...2956   1965.000000
 UP BOUND001  x...2957   1965.000000
 UP BOUND001  x...2958   1965.000000
 UP BOUND001  x...2959   1965.000000
 UP BOUND001  x...2960   1965.000000
 UP BOUND001  x...2961   1965.000000
 UP BOUND001  x...2962   1965.000000
 UP BOUND001  x...2963   1965.000000
 UP BOUND001  x...2964   1965.000000
 UP BOUND001  x...2965   1965.000000
 UP BOUND001  x...2966   1965.000000
 UP BOUND001  x...2967   1965.000000
 UP BOUND001  x...2968   1965.000000
 UP BOUND001  x...2969   1965.000000
 UP BOUND001  x...2970   1965.000000
 UP BOUND001  x...2971   1965.000000
 UP BOUND001  x...2972   1965.000000
 UP BOUND001  x...2973   1965.000000
 UP BOUND001  x...2974   1965.000000
 UP BOUND001  x...2975   1965.000000
 UP BOUND001  x...2976   1965.000000
 UP BOUND001  x...2977   1965.000000
 UP BOUND001  x...2978   1965.000000
 UP BOUND001  x...2979   1965.000000
 UP BOUND001  x...2980   1965.000000
 UP BOUND001  x...2981   1965.000000
 UP BOUND001  x...2982   1965.000000
 UP BOUND001  x...2983   1965.000000
 UP BOUND001  x...2984   1965.000000
 UP BOUND001  x...2985   1965.000000
 UP BOUND001  x...2986   1965.000000
 UP BOUND001  x...2987   1965.000000
 UP BOUND001  x...2988   1965.000000
 BV BOUND001  y...0001
 BV BOUND001  y...0002
 BV BOUND001  y...0003
 BV BOUND001  y...0004
 BV BOUND001  y...0005
 BV BOUND001  y...0006
 BV BOUND001  y...0007
 BV BOUND001  y...0008
 BV BOUND001  y...0009
 BV BOUND001  y...0010
 BV BOUND001  y...0011
 BV BOUND001  y...0012
 BV BOUND001  y...0013
 BV BOUND001  y...0014
 BV BOUND001  y...0015
 BV BOUND001  y...0016
 BV BOUND001  y...0017
 BV BOUND001  y...0018
 BV BOUND001  y...0019
 BV BOUND001  y...0020
 BV BOUND001  y...0021
 BV BOUND001  y...0022
 BV BOUND001  y...0023
 BV BOUND001  y...0024
 BV BOUND001  y...0025
 BV BOUND001  y...0026
 BV BOUND001  y...0027
 BV BOUND001  y...0028
 BV BOUND001  y...0029
 BV BOUND001  y...0030
 BV BOUND001  y...0031
 BV BOUND001  y...0032
 BV BOUND001  y...0033
 BV BOUND001  y...0034
 BV BOUND001  y...0035
 BV BOUND001  y...0036
 BV BOUND001  y...0037
 BV BOUND001  y...0038
 BV BOUND001  y...0039
 BV BOUND001  y...0040
 BV BOUND001  y...0041
 BV BOUND001  y...0042
 BV BOUND001  y...0043
 BV BOUND001  y...0044
 BV BOUND001  y...0045
 BV BOUND001  y...0046
 BV BOUND001  y...0047
 BV BOUND001  y...0048
 BV BOUND001  y...0049
 BV BOUND001  y...0050
 BV BOUND001  y...0051
 BV BOUND001  y...0052
 BV BOUND001  y...0053
 BV BOUND001  y...0054
 BV BOUND001  y...0055
 BV BOUND001  y...0056
 BV BOUND001  y...0057
 BV BOUND001  y...0058
 BV BOUND001  y...0059
 BV BOUND001  y...0060
 BV BOUND001  y...0061
 BV BOUND001  y...0062
 BV BOUND001  y...0063
 BV BOUND001  y...0064
 BV BOUND001  y...0065
 BV BOUND001  y...0066
 BV BOUND001  y...0067
 BV BOUND001  y...0068
 BV BOUND001  y...0069
 BV BOUND001  y...0070
 BV BOUND001  y...0071
 BV BOUND001  y...0072
 BV BOUND001  y...0073
 BV BOUND001  y...0074
 BV BOUND001  y...0075
 BV BOUND001  y...0076
 BV BOUND001  y...0077
 BV BOUND001  y...0078
 BV BOUND001  y...0079
 BV BOUND001  y...0080
 BV BOUND001  y...0081
 BV BOUND001  y...0082
 BV BOUND001  y...0083
 BV BOUND001  y...0084
 BV BOUND001  y...0085
 BV BOUND001  y...0086
 BV BOUND001  y...0087
 BV BOUND001  y...0088
 BV BOUND001  y...0089
 BV BOUND001  y...0090
 BV BOUND001  y...0091
 BV BOUND001  y...0092
 BV BOUND001  y...0093
 BV BOUND001  y...0094
 BV BOUND001  y...0095
 BV BOUND001  y...0096
 BV BOUND001  y...0097
 BV BOUND001  y...0098
 BV BOUND001  y...0099
 BV BOUND001  y...0100
 BV BOUND001  y...0101
 BV BOUND001  y...0102
 BV BOUND001  y...0103
 BV BOUND001  y...0104
 BV BOUND001  y...0105
 BV BOUND001  y...0106
 BV BOUND001  y...0107
 BV BOUND001  y...0108
 BV BOUND001  y...0109
 BV BOUND001  y...0110
 BV BOUND001  y...0111
 BV BOUND001  y...0112
 BV BOUND001  y...0113
 BV BOUND001  y...0114
 BV BOUND001  y...0115
 BV BOUND001  y...0116
 BV BOUND001  y...0117
 BV BOUND001  y...0118
 BV BOUND001  y...0119
 BV BOUND001  y...0120
 BV BOUND001  y...0121
 BV BOUND001  y...0122
 BV BOUND001  y...0123
 BV BOUND001  y...0124
 BV BOUND001  y...0125
 BV BOUND001  y...0126
 BV BOUND001  y...0127
 BV BOUND001  y...0128
 BV BOUND001  y...0129
 BV BOUND001  y...0130
 BV BOUND001  y...0131
 BV BOUND001  y...0132
 BV BOUND001  y...0133
 BV BOUND001  y...0134
 BV BOUND001  y...0135
 BV BOUND001  y...0136
 BV BOUND001  y...0137
 BV BOUND001  y...0138
 BV BOUND001  y...0139
 BV BOUND001  y...0140
 BV BOUND001  y...0141
 BV BOUND001  y...0142
 BV BOUND001  y...0143
 BV BOUND001  y...0144
 BV BOUND001  y...0145
 BV BOUND001  y...0146
 BV BOUND001  y...0147
 BV BOUND001  y...0148
 BV BOUND001  y...0149
 BV BOUND001  y...0150
 BV BOUND001  y...0151
 BV BOUND001  y...0152
 BV BOUND001  y...0153
 BV BOUND001  y...0154
 BV BOUND001  y...0155
 BV BOUND001  y...0156
 BV BOUND001  y...0157
 BV BOUND001  y...0158
 BV BOUND001  y...0159
 BV BOUND001  y...0160
 BV BOUND001  y...0161
 BV BOUND001  y...0162
 BV BOUND001  y...0163
 BV BOUND001  y...0164
 BV BOUND001  y...0165
 BV BOUND001  y...0166
 BV BOUND001  y...0167
 BV BOUND001  y...0168
 BV BOUND001  y...0169
 BV BOUND001  y...0170
 BV BOUND001  y...0171
 BV BOUND001  y...0172
 BV BOUND001  y...0173
 BV BOUND001  y...0174
 BV BOUND001  y...0175
 BV BOUND001  y...0176
 BV BOUND001  y...0177
 BV BOUND001  y...0178
 BV BOUND001  y...0179
 BV BOUND001  y...0180
 BV BOUND001  y...0181
 BV BOUND001  y...0182
 BV BOUND001  y...0183
 BV BOUND001  y...0184
 BV BOUND001  y...0185
 BV BOUND001  y...0186
 BV BOUND001  y...0187
 BV BOUND001  y...0188
 BV BOUND001  y...0189
 BV BOUND001  y...0190
 BV BOUND001  y...0191
 BV BOUND001  y...0192
 BV BOUND001  y...0193
 BV BOUND001  y...0194
 BV BOUND001  y...0195
 BV BOUND001  y...0196
 BV BOUND001  y...0197
 BV BOUND001  y...0198
 BV BOUND001  y...0199
 BV BOUND001  y...0200
 BV BOUND001  y...0201
 BV BOUND001  y...0202
 BV BOUND001  y...0203
 BV BOUND001  y...0204
 BV BOUND001  y...0205
 BV BOUND001  y...0206
 BV BOUND001  y...0207
 BV BOUND001  y...0208
 BV BOUND001  y...0209
 BV BOUND001  y...0210
 BV BOUND001  y...0211
 BV BOUND001  y...0212
 BV BOUND001  y...0213
 BV BOUND001  y...0214
 BV BOUND001  y...0215
 BV BOUND001  y...0216
 BV BOUND001  y...0217
 BV BOUND001  y...0218
 BV BOUND001  y...0219
 BV BOUND001  y...0220
 BV BOUND001  y...0221
 BV BOUND001  y...0222
 BV BOUND001  y...0223
 BV BOUND001  y...0224
 BV BOUND001  y...0225
 BV BOUND001  y...0226
 BV BOUND001  y...0227
 BV BOUND001  y...0228
 BV BOUND001  y...0229
 BV BOUND001  y...0230
 BV BOUND001  y...0231
 BV BOUND001  y...0232
 BV BOUND001  y...0233
 BV BOUND001  y...0234
 BV BOUND001  y...0235
 BV BOUND001  y...0236
 BV BOUND001  y...0237
 BV BOUND001  y...0238
 BV BOUND001  y...0239
 BV BOUND001  y...0240
 BV BOUND001  y...0241
 BV BOUND001  y...0242
 BV BOUND001  y...0243
 BV BOUND001  y...0244
 BV BOUND001  y...0245
 BV BOUND001  y...0246
 BV BOUND001  y...0247
 BV BOUND001  y...0248
 BV BOUND001  y...0249
 BV BOUND001  y...0250
 BV BOUND001  y...0251
 BV BOUND001  y...0252
 BV BOUND001  y...0253
 BV BOUND001  y...0254
 BV BOUND001  y...0255
 BV BOUND001  y...0256
 BV BOUND001  y...0257
 BV BOUND001  y...0258
 BV BOUND001  y...0259
 BV BOUND001  y...0260
 BV BOUND001  y...0261
 BV BOUND001  y...0262
 BV BOUND001  y...0263
 BV BOUND001  y...0264
 BV BOUND001  y...0265
 BV BOUND001  y...0266
 BV BOUND001  y...0267
 BV BOUND001  y...0268
 BV BOUND001  y...0269
 BV BOUND001  y...0270
 BV BOUND001  y...0271
 BV BOUND001  y...0272
 BV BOUND001  y...0273
 BV BOUND001  y...0274
 BV BOUND001  y...0275
 BV BOUND001  y...0276
 BV BOUND001  y...0277
 BV BOUND001  y...0278
 BV BOUND001  y...0279
 BV BOUND001  y...0280
 BV BOUND001  y...0281
 BV BOUND001  y...0282
 BV BOUND001  y...0283
 BV BOUND001  y...0284
 BV BOUND001  y...0285
 BV BOUND001  y...0286
 BV BOUND001  y...0287
 BV BOUND001  y...0288
 BV BOUND001  y...0289
 BV BOUND001  y...0290
 BV BOUND001  y...0291
 BV BOUND001  y...0292
 BV BOUND001  y...0293
 BV BOUND001  y...0294
 BV BOUND001  y...0295
 BV BOUND001  y...0296
 BV BOUND001  y...0297
 BV BOUND001  y...0298
 BV BOUND001  y...0299
 BV BOUND001  y...0300
 BV BOUND001  y...0301
 BV BOUND001  y...0302
 BV BOUND001  y...0303
 BV BOUND001  y...0304
 BV BOUND001  y...0305
 BV BOUND001  y...0306
 BV BOUND001  y...0307
 BV BOUND001  y...0308
 BV BOUND001  y...0309
 BV BOUND001  y...0310
 BV BOUND001  y...0311
 BV BOUND001  y...0312
 BV BOUND001  y...0313
 BV BOUND001  y...0314
 BV BOUND001  y...0315
 BV BOUND001  y...0316
 BV BOUND001  y...0317
 BV BOUND001  y...0318
 BV BOUND001  y...0319
 BV BOUND001  y...0320
 BV BOUND001  y...0321
 BV BOUND001  y...0322
 BV BOUND001  y...0323
 BV BOUND001  y...0324
 BV BOUND001  y...0325
 BV BOUND001  y...0326
 BV BOUND001  y...0327
 BV BOUND001  y...0328
 BV BOUND001  y...0329
 BV BOUND001  y...0330
 BV BOUND001  y...0331
 BV BOUND001  y...0332
 BV BOUND001  y...0333
 BV BOUND001  y...0334
 BV BOUND001  y...0335
 BV BOUND001  y...0336
 BV BOUND001  y...0337
 BV BOUND001  y...0338
 BV BOUND001  y...0339
 BV BOUND001  y...0340
 BV BOUND001  y...0341
 BV BOUND001  y...0342
 BV BOUND001  y...0343
 BV BOUND001  y...0344
 BV BOUND001  y...0345
 BV BOUND001  y...0346
 BV BOUND001  y...0347
 BV BOUND001  y...0348
 BV BOUND001  y...0349
 BV BOUND001  y...0350
 BV BOUND001  y...0351
 BV BOUND001  y...0352
 BV BOUND001  y...0353
 BV BOUND001  y...0354
 BV BOUND001  y...0355
 BV BOUND001  y...0356
 BV BOUND001  y...0357
 BV BOUND001  y...0358
 BV BOUND001  y...0359
 BV BOUND001  y...0360
 BV BOUND001  y...0361
 BV BOUND001  y...0362
 BV BOUND001  y...0363
 BV BOUND001  y...0364
 BV BOUND001  y...0365
 BV BOUND001  y...0366
 BV BOUND001  y...0367
 BV BOUND001  y...0368
 BV BOUND001  y...0369
 BV BOUND001  y...0370
 BV BOUND001  y...0371
 BV BOUND001  y...0372
 BV BOUND001  y...0373
 BV BOUND001  y...0374
 BV BOUND001  y...0375
 BV BOUND001  y...0376
 BV BOUND001  y...0377
 BV BOUND001  y...0378
 BV BOUND001  y...0379
 BV BOUND001  y...0380
 BV BOUND001  y...0381
 BV BOUND001  y...0382
 BV BOUND001  y...0383
 BV BOUND001  y...0384
 BV BOUND001  y...0385
 BV BOUND001  y...0386
 BV BOUND001  y...0387
 BV BOUND001  y...0388
 BV BOUND001  y...0389
 BV BOUND001  y...0390
 BV BOUND001  y...0391
 BV BOUND001  y...0392
 BV BOUND001  y...0393
 BV BOUND001  y...0394
 BV BOUND001  y...0395
 BV BOUND001  y...0396
 BV BOUND001  y...0397
 BV BOUND001  y...0398
 BV BOUND001  y...0399
 BV BOUND001  y...0400
 BV BOUND001  y...0401
 BV BOUND001  y...0402
 BV BOUND001  y...0403
 BV BOUND001  y...0404
 BV BOUND001  y...0405
 BV BOUND001  y...0406
 BV BOUND001  y...0407
 BV BOUND001  y...0408
 BV BOUND001  y...0409
 BV BOUND001  y...0410
 BV BOUND001  y...0411
 BV BOUND001  y...0412
 BV BOUND001  y...0413
 BV BOUND001  y...0414
 BV BOUND001  y...0415
 BV BOUND001  y...0416
 BV BOUND001  y...0417
 BV BOUND001  y...0418
 BV BOUND001  y...0419
 BV BOUND001  y...0420
 BV BOUND001  y...0421
 BV BOUND001  y...0422
 BV BOUND001  y...0423
 BV BOUND001  y...0424
 BV BOUND001  y...0425
 BV BOUND001  y...0426
 BV BOUND001  y...0427
 BV BOUND001  y...0428
 BV BOUND001  y...0429
 BV BOUND001  y...0430
 BV BOUND001  y...0431
 BV BOUND001  y...0432
 BV BOUND001  y...0433
 BV BOUND001  y...0434
 BV BOUND001  y...0435
 BV BOUND001  y...0436
 BV BOUND001  y...0437
 BV BOUND001  y...0438
 BV BOUND001  y...0439
 BV BOUND001  y...0440
 BV BOUND001  y...0441
 BV BOUND001  y...0442
 BV BOUND001  y...0443
 BV BOUND001  y...0444
 BV BOUND001  y...0445
 BV BOUND001  y...0446
 BV BOUND001  y...0447
 BV BOUND001  y...0448
 BV BOUND001  y...0449
 BV BOUND001  y...0450
 BV BOUND001  y...0451
 BV BOUND001  y...0452
 BV BOUND001  y...0453
 BV BOUND001  y...0454
 BV BOUND001  y...0455
 BV BOUND001  y...0456
 BV BOUND001  y...0457
 BV BOUND001  y...0458
 BV BOUND001  y...0459
 BV BOUND001  y...0460
 BV BOUND001  y...0461
 BV BOUND001  y...0462
 BV BOUND001  y...0463
 BV BOUND001  y...0464
 BV BOUND001  y...0465
 BV BOUND001  y...0466
 BV BOUND001  y...0467
 BV BOUND001  y...0468
 BV BOUND001  y...0469
 BV BOUND001  y...0470
 BV BOUND001  y...0471
 BV BOUND001  y...0472
 BV BOUND001  y...0473
 BV BOUND001  y...0474
 BV BOUND001  y...0475
 BV BOUND001  y...0476
 BV BOUND001  y...0477
 BV BOUND001  y...0478
 BV BOUND001  y...0479
 BV BOUND001  y...0480
 BV BOUND001  y...0481
 BV BOUND001  y...0482
 BV BOUND001  y...0483
 BV BOUND001  y...0484
 BV BOUND001  y...0485
 BV BOUND001  y...0486
 BV BOUND001  y...0487
 BV BOUND001  y...0488
 BV BOUND001  y...0489
 BV BOUND001  y...0490
 BV BOUND001  y...0491
 BV BOUND001  y...0492
 BV BOUND001  y...0493
 BV BOUND001  y...0494
 BV BOUND001  y...0495
 BV BOUND001  y...0496
 BV BOUND001  y...0497
 BV BOUND001  y...0498
 BV BOUND001  y...0499
 BV BOUND001  y...0500
 BV BOUND001  y...0501
 BV BOUND001  y...0502
 BV BOUND001  y...0503
 BV BOUND001  y...0504
 BV BOUND001  y...0505
 BV BOUND001  y...0506
 BV BOUND001  y...0507
 BV BOUND001  y...0508
 BV BOUND001  y...0509
 BV BOUND001  y...0510
 BV BOUND001  y...0511
 BV BOUND001  y...0512
 BV BOUND001  y...0513
 BV BOUND001  y...0514
 BV BOUND001  y...0515
 BV BOUND001  y...0516
 BV BOUND001  y...0517
 BV BOUND001  y...0518
 BV BOUND001  y...0519
 BV BOUND001  y...0520
 BV BOUND001  y...0521
 BV BOUND001  y...0522
 BV BOUND001  y...0523
 BV BOUND001  y...0524
 BV BOUND001  y...0525
 BV BOUND001  y...0526
 BV BOUND001  y...0527
 BV BOUND001  y...0528
 BV BOUND001  y...0529
 BV BOUND001  y...0530
 BV BOUND001  y...0531
 BV BOUND001  y...0532
 BV BOUND001  y...0533
 BV BOUND001  y...0534
 BV BOUND001  y...0535
 BV BOUND001  y...0536
 BV BOUND001  y...0537
 BV BOUND001  y...0538
 BV BOUND001  y...0539
 BV BOUND001  y...0540
 BV BOUND001  y...0541
 BV BOUND001  y...0542
 BV BOUND001  y...0543
 BV BOUND001  y...0544
 BV BOUND001  y...0545
 BV BOUND001  y...0546
 BV BOUND001  y...0547
 BV BOUND001  y...0548
 BV BOUND001  y...0549
 BV BOUND001  y...0550
 BV BOUND001  y...0551
 BV BOUND001  y...0552
 BV BOUND001  y...0553
 BV BOUND001  y...0554
 BV BOUND001  y...0555
 BV BOUND001  y...0556
 BV BOUND001  y...0557
 BV BOUND001  y...0558
 BV BOUND001  y...0559
 BV BOUND001  y...0560
 BV BOUND001  y...0561
 BV BOUND001  y...0562
 BV BOUND001  y...0563
 BV BOUND001  y...0564
 BV BOUND001  y...0565
 BV BOUND001  y...0566
 BV BOUND001  y...0567
 BV BOUND001  y...0568
 BV BOUND001  y...0569
 BV BOUND001  y...0570
 BV BOUND001  y...0571
 BV BOUND001  y...0572
 BV BOUND001  y...0573
 BV BOUND001  y...0574
 BV BOUND001  y...0575
 BV BOUND001  y...0576
 BV BOUND001  y...0577
 BV BOUND001  y...0578
 BV BOUND001  y...0579
 BV BOUND001  y...0580
 BV BOUND001  y...0581
 BV BOUND001  y...0582
 BV BOUND001  y...0583
 BV BOUND001  y...0584
 BV BOUND001  y...0585
 BV BOUND001  y...0586
 BV BOUND001  y...0587
 BV BOUND001  y...0588
 BV BOUND001  y...0589
 BV BOUND001  y...0590
 BV BOUND001  y...0591
 BV BOUND001  y...0592
 BV BOUND001  y...0593
 BV BOUND001  y...0594
 BV BOUND001  y...0595
 BV BOUND001  y...0596
 BV BOUND001  y...0597
 BV BOUND001  y...0598
 BV BOUND001  y...0599
 BV BOUND001  y...0600
 BV BOUND001  y...0601
 BV BOUND001  y...0602
 BV BOUND001  y...0603
 BV BOUND001  y...0604
 BV BOUND001  y...0605
 BV BOUND001  y...0606
 BV BOUND001  y...0607
 BV BOUND001  y...0608
 BV BOUND001  y...0609
 BV BOUND001  y...0610
 BV BOUND001  y...0611
 BV BOUND001  y...0612
 BV BOUND001  y...0613
 BV BOUND001  y...0614
 BV BOUND001  y...0615
 BV BOUND001  y...0616
 BV BOUND001  y...0617
 BV BOUND001  y...0618
 BV BOUND001  y...0619
 BV BOUND001  y...0620
 BV BOUND001  y...0621
 BV BOUND001  y...0622
 BV BOUND001  y...0623
 BV BOUND001  y...0624
 BV BOUND001  y...0625
 BV BOUND001  y...0626
 BV BOUND001  y...0627
 BV BOUND001  y...0628
 BV BOUND001  y...0629
 BV BOUND001  y...0630
 BV BOUND001  y...0631
 BV BOUND001  y...0632
 BV BOUND001  y...0633
 BV BOUND001  y...0634
 BV BOUND001  y...0635
 BV BOUND001  y...0636
 BV BOUND001  y...0637
 BV BOUND001  y...0638
 BV BOUND001  y...0639
 BV BOUND001  y...0640
 BV BOUND001  y...0641
 BV BOUND001  y...0642
 BV BOUND001  y...0643
 BV BOUND001  y...0644
 BV BOUND001  y...0645
 BV BOUND001  y...0646
 BV BOUND001  y...0647
 BV BOUND001  y...0648
 BV BOUND001  y...0649
 BV BOUND001  y...0650
 BV BOUND001  y...0651
 BV BOUND001  y...0652
 BV BOUND001  y...0653
 BV BOUND001  y...0654
 BV BOUND001  y...0655
 BV BOUND001  y...0656
 BV BOUND001  y...0657
 BV BOUND001  y...0658
 BV BOUND001  y...0659
 BV BOUND001  y...0660
 BV BOUND001  y...0661
 BV BOUND001  y...0662
 BV BOUND001  y...0663
 BV BOUND001  y...0664
 BV BOUND001  y...0665
 BV BOUND001  y...0666
 BV BOUND001  y...0667
 BV BOUND001  y...0668
 BV BOUND001  y...0669
 BV BOUND001  y...0670
 BV BOUND001  y...0671
 BV BOUND001  y...0672
 BV BOUND001  y...0673
 BV BOUND001  y...0674
 BV BOUND001  y...0675
 BV BOUND001  y...0676
 BV BOUND001  y...0677
 BV BOUND001  y...0678
 BV BOUND001  y...0679
 BV BOUND001  y...0680
 BV BOUND001  y...0681
 BV BOUND001  y...0682
 BV BOUND001  y...0683
 BV BOUND001  y...0684
 BV BOUND001  y...0685
 BV BOUND001  y...0686
 BV BOUND001  y...0687
 BV BOUND001  y...0688
 BV BOUND001  y...0689
 BV BOUND001  y...0690
 BV BOUND001  y...0691
 BV BOUND001  y...0692
 BV BOUND001  y...0693
 BV BOUND001  y...0694
 BV BOUND001  y...0695
 BV BOUND001  y...0696
 BV BOUND001  y...0697
 BV BOUND001  y...0698
 BV BOUND001  y...0699
 BV BOUND001  y...0700
 BV BOUND001  y...0701
 BV BOUND001  y...0702
 BV BOUND001  y...0703
 BV BOUND001  y...0704
 BV BOUND001  y...0705
 BV BOUND001  y...0706
 BV BOUND001  y...0707
 BV BOUND001  y...0708
 BV BOUND001  y...0709
 BV BOUND001  y...0710
 BV BOUND001  y...0711
 BV BOUND001  y...0712
 BV BOUND001  y...0713
 BV BOUND001  y...0714
 BV BOUND001  y...0715
 BV BOUND001  y...0716
 BV BOUND001  y...0717
 BV BOUND001  y...0718
 BV BOUND001  y...0719
 BV BOUND001  y...0720
 BV BOUND001  y...0721
 BV BOUND001  y...0722
 BV BOUND001  y...0723
 BV BOUND001  y...0724
 BV BOUND001  y...0725
 BV BOUND001  y...0726
 BV BOUND001  y...0727
 BV BOUND001  y...0728
 BV BOUND001  y...0729
 BV BOUND001  y...0730
 BV BOUND001  y...0731
 BV BOUND001  y...0732
 BV BOUND001  y...0733
 BV BOUND001  y...0734
 BV BOUND001  y...0735
 BV BOUND001  y...0736
 BV BOUND001  y...0737
 BV BOUND001  y...0738
 BV BOUND001  y...0739
 BV BOUND001  y...0740
 BV BOUND001  y...0741
 BV BOUND001  y...0742
 BV BOUND001  y...0743
 BV BOUND001  y...0744
 BV BOUND001  y...0745
 BV BOUND001  y...0746
 BV BOUND001  y...0747
 BV BOUND001  y...0748
 BV BOUND001  y...0749
 BV BOUND001  y...0750
 BV BOUND001  y...0751
 BV BOUND001  y...0752
 BV BOUND001  y...0753
 BV BOUND001  y...0754
 BV BOUND001  y...0755
 BV BOUND001  y...0756
 BV BOUND001  y...0757
 BV BOUND001  y...0758
 BV BOUND001  y...0759
 BV BOUND001  y...0760
 BV BOUND001  y...0761
 BV BOUND001  y...0762
 BV BOUND001  y...0763
 BV BOUND001  y...0764
 BV BOUND001  y...0765
 BV BOUND001  y...0766
 BV BOUND001  y...0767
 BV BOUND001  y...0768
 BV BOUND001  y...0769
 BV BOUND001  y...0770
 BV BOUND001  y...0771
 BV BOUND001  y...0772
 BV BOUND001  y...0773
 BV BOUND001  y...0774
 BV BOUND001  y...0775
 BV BOUND001  y...0776
 BV BOUND001  y...0777
 BV BOUND001  y...0778
 BV BOUND001  y...0779
 BV BOUND001  y...0780
 BV BOUND001  y...0781
 BV BOUND001  y...0782
 BV BOUND001  y...0783
 BV BOUND001  y...0784
 BV BOUND001  y...0785
 BV BOUND001  y...0786
 BV BOUND001  y...0787
 BV BOUND001  y...0788
 BV BOUND001  y...0789
 BV BOUND001  y...0790
 BV BOUND001  y...0791
 BV BOUND001  y...0792
 BV BOUND001  y...0793
 BV BOUND001  y...0794
 BV BOUND001  y...0795
 BV BOUND001  y...0796
 BV BOUND001  y...0797
 BV BOUND001  y...0798
 BV BOUND001  y...0799
 BV BOUND001  y...0800
 BV BOUND001  y...0801
 BV BOUND001  y...0802
 BV BOUND001  y...0803
 BV BOUND001  y...0804
 BV BOUND001  y...0805
 BV BOUND001  y...0806
 BV BOUND001  y...0807
 BV BOUND001  y...0808
 BV BOUND001  y...0809
 BV BOUND001  y...0810
 BV BOUND001  y...0811
 BV BOUND001  y...0812
 BV BOUND001  y...0813
 BV BOUND001  y...0814
 BV BOUND001  y...0815
 BV BOUND001  y...0816
 BV BOUND001  y...0817
 BV BOUND001  y...0818
 BV BOUND001  y...0819
 BV BOUND001  y...0820
 BV BOUND001  y...0821
 BV BOUND001  y...0822
 BV BOUND001  y...0823
 BV BOUND001  y...0824
 BV BOUND001  y...0825
 BV BOUND001  y...0826
 BV BOUND001  y...0827
 BV BOUND001  y...0828
 BV BOUND001  y...0829
 BV BOUND001  y...0830
 BV BOUND001  y...0831
 BV BOUND001  y...0832
 BV BOUND001  y...0833
 BV BOUND001  y...0834
 BV BOUND001  y...0835
 BV BOUND001  y...0836
 BV BOUND001  y...0837
 BV BOUND001  y...0838
 BV BOUND001  y...0839
 BV BOUND001  y...0840
 BV BOUND001  y...0841
 BV BOUND001  y...0842
 BV BOUND001  y...0843
 BV BOUND001  y...0844
 BV BOUND001  y...0845
 BV BOUND001  y...0846
 BV BOUND001  y...0847
 BV BOUND001  y...0848
 BV BOUND001  y...0849
 BV BOUND001  y...0850
 BV BOUND001  y...0851
 BV BOUND001  y...0852
 BV BOUND001  y...0853
 BV BOUND001  y...0854
 BV BOUND001  y...0855
 BV BOUND001  y...0856
 BV BOUND001  y...0857
 BV BOUND001  y...0858
 BV BOUND001  y...0859
 BV BOUND001  y...0860
 BV BOUND001  y...0861
 BV BOUND001  y...0862
 BV BOUND001  y...0863
 BV BOUND001  y...0864
 BV BOUND001  y...0865
 BV BOUND001  y...0866
 BV BOUND001  y...0867
 BV BOUND001  y...0868
 BV BOUND001  y...0869
 BV BOUND001  y...0870
 BV BOUND001  y...0871
 BV BOUND001  y...0872
 BV BOUND001  y...0873
 BV BOUND001  y...0874
 BV BOUND001  y...0875
 BV BOUND001  y...0876
 BV BOUND001  y...0877
 BV BOUND001  y...0878
 BV BOUND001  y...0879
 BV BOUND001  y...0880
 BV BOUND001  y...0881
 BV BOUND001  y...0882
 BV BOUND001  y...0883
 BV BOUND001  y...0884
 BV BOUND001  y...0885
 BV BOUND001  y...0886
 BV BOUND001  y...0887
 BV BOUND001  y...0888
 BV BOUND001  y...0889
 BV BOUND001  y...0890
 BV BOUND001  y...0891
 BV BOUND001  y...0892
 BV BOUND001  y...0893
 BV BOUND001  y...0894
 BV BOUND001  y...0895
 BV BOUND001  y...0896
 BV BOUND001  y...0897
 BV BOUND001  y...0898
 BV BOUND001  y...0899
 BV BOUND001  y...0900
 BV BOUND001  y...0901
 BV BOUND001  y...0902
 BV BOUND001  y...0903
 BV BOUND001  y...0904
 BV BOUND001  y...0905
 BV BOUND001  y...0906
 BV BOUND001  y...0907
 BV BOUND001  y...0908
 BV BOUND001  y...0909
 BV BOUND001  y...0910
 BV BOUND001  y...0911
 BV BOUND001  y...0912
 BV BOUND001  y...0913
 BV BOUND001  y...0914
 BV BOUND001  y...0915
 BV BOUND001  y...0916
 BV BOUND001  y...0917
 BV BOUND001  y...0918
 BV BOUND001  y...0919
 BV BOUND001  y...0920
 BV BOUND001  y...0921
 BV BOUND001  y...0922
 BV BOUND001  y...0923
 BV BOUND001  y...0924
 BV BOUND001  y...0925
 BV BOUND001  y...0926
 BV BOUND001  y...0927
 BV BOUND001  y...0928
 BV BOUND001  y...0929
 BV BOUND001  y...0930
 BV BOUND001  y...0931
 BV BOUND001  y...0932
 BV BOUND001  y...0933
 BV BOUND001  y...0934
 BV BOUND001  y...0935
 BV BOUND001  y...0936
 BV BOUND001  y...0937
 BV BOUND001  y...0938
 BV BOUND001  y...0939
 BV BOUND001  y...0940
 BV BOUND001  y...0941
 BV BOUND001  y...0942
 BV BOUND001  y...0943
 BV BOUND001  y...0944
 BV BOUND001  y...0945
 BV BOUND001  y...0946
 BV BOUND001  y...0947
 BV BOUND001  y...0948
 BV BOUND001  y...0949
 BV BOUND001  y...0950
 BV BOUND001  y...0951
 BV BOUND001  y...0952
 BV BOUND001  y...0953
 BV BOUND001  y...0954
 BV BOUND001  y...0955
 BV BOUND001  y...0956
 BV BOUND001  y...0957
 BV BOUND001  y...0958
 BV BOUND001  y...0959
 BV BOUND001  y...0960
 BV BOUND001  y...0961
 BV BOUND001  y...0962
 BV BOUND001  y...0963
 BV BOUND001  y...0964
 BV BOUND001  y...0965
 BV BOUND001  y...0966
 BV BOUND001  y...0967
 BV BOUND001  y...0968
 BV BOUND001  y...0969
 BV BOUND001  y...0970
 BV BOUND001  y...0971
 BV BOUND001  y...0972
 BV BOUND001  y...0973
 BV BOUND001  y...0974
 BV BOUND001  y...0975
 BV BOUND001  y...0976
 BV BOUND001  y...0977
 BV BOUND001  y...0978
 BV BOUND001  y...0979
 BV BOUND001  y...0980
 BV BOUND001  y...0981
 BV BOUND001  y...0982
 BV BOUND001  y...0983
 BV BOUND001  y...0984
 BV BOUND001  y...0985
 BV BOUND001  y...0986
 BV BOUND001  y...0987
 BV BOUND001  y...0988
 BV BOUND001  y...0989
 BV BOUND001  y...0990
 BV BOUND001  y...0991
 BV BOUND001  y...0992
 BV BOUND001  y...0993
 BV BOUND001  y...0994
 BV BOUND001  y...0995
 BV BOUND001  y...0996
 BV BOUND001  y...0997
 BV BOUND001  y...0998
 BV BOUND001  y...0999
 BV BOUND001  y...1000
 BV BOUND001  y...1001
 BV BOUND001  y...1002
 BV BOUND001  y...1003
 BV BOUND001  y...1004
 BV BOUND001  y...1005
 BV BOUND001  y...1006
 BV BOUND001  y...1007
 BV BOUND001  y...1008
 BV BOUND001  y...1009
 BV BOUND001  y...1010
 BV BOUND001  y...1011
 BV BOUND001  y...1012
 BV BOUND001  y...1013
 BV BOUND001  y...1014
 BV BOUND001  y...1015
 BV BOUND001  y...1016
 BV BOUND001  y...1017
 BV BOUND001  y...1018
 BV BOUND001  y...1019
 BV BOUND001  y...1020
 BV BOUND001  y...1021
 BV BOUND001  y...1022
 BV BOUND001  y...1023
 BV BOUND001  y...1024
 BV BOUND001  y...1025
 BV BOUND001  y...1026
 BV BOUND001  y...1027
 BV BOUND001  y...1028
 BV BOUND001  y...1029
 BV BOUND001  y...1030
 BV BOUND001  y...1031
 BV BOUND001  y...1032
 BV BOUND001  y...1033
 BV BOUND001  y...1034
 BV BOUND001  y...1035
 BV BOUND001  y...1036
 BV BOUND001  y...1037
 BV BOUND001  y...1038
 BV BOUND001  y...1039
 BV BOUND001  y...1040
 BV BOUND001  y...1041
 BV BOUND001  y...1042
 BV BOUND001  y...1043
 BV BOUND001  y...1044
 BV BOUND001  y...1045
 BV BOUND001  y...1046
 BV BOUND001  y...1047
 BV BOUND001  y...1048
 BV BOUND001  y...1049
 BV BOUND001  y...1050
 BV BOUND001  y...1051
 BV BOUND001  y...1052
 BV BOUND001  y...1053
 BV BOUND001  y...1054
 BV BOUND001  y...1055
 BV BOUND001  y...1056
 BV BOUND001  y...1057
 BV BOUND001  y...1058
 BV BOUND001  y...1059
 BV BOUND001  y...1060
 BV BOUND001  y...1061
 BV BOUND001  y...1062
 BV BOUND001  y...1063
 BV BOUND001  y...1064
 BV BOUND001  y...1065
 BV BOUND001  y...1066
 BV BOUND001  y...1067
 BV BOUND001  y...1068
 BV BOUND001  y...1069
 BV BOUND001  y...1070
 BV BOUND001  y...1071
 BV BOUND001  y...1072
 BV BOUND001  y...1073
 BV BOUND001  y...1074
 BV BOUND001  y...1075
 BV BOUND001  y...1076
 BV BOUND001  y...1077
 BV BOUND001  y...1078
 BV BOUND001  y...1079
 BV BOUND001  y...1080
 BV BOUND001  y...1081
 BV BOUND001  y...1082
 BV BOUND001  y...1083
 BV BOUND001  y...1084
 BV BOUND001  y...1085
 BV BOUND001  y...1086
 BV BOUND001  y...1087
 BV BOUND001  y...1088
 BV BOUND001  y...1089
 BV BOUND001  y...1090
 BV BOUND001  y...1091
 BV BOUND001  y...1092
 BV BOUND001  y...1093
 BV BOUND001  y...1094
 BV BOUND001  y...1095
 BV BOUND001  y...1096
 BV BOUND001  y...1097
 BV BOUND001  y...1098
 BV BOUND001  y...1099
 BV BOUND001  y...1100
 BV BOUND001  y...1101
 BV BOUND001  y...1102
 BV BOUND001  y...1103
 BV BOUND001  y...1104
 BV BOUND001  y...1105
 BV BOUND001  y...1106
 BV BOUND001  y...1107
 BV BOUND001  y...1108
 BV BOUND001  y...1109
 BV BOUND001  y...1110
 BV BOUND001  y...1111
 BV BOUND001  y...1112
 BV BOUND001  y...1113
 BV BOUND001  y...1114
 BV BOUND001  y...1115
 BV BOUND001  y...1116
 BV BOUND001  y...1117
 BV BOUND001  y...1118
 BV BOUND001  y...1119
 BV BOUND001  y...1120
 BV BOUND001  y...1121
 BV BOUND001  y...1122
 BV BOUND001  y...1123
 BV BOUND001  y...1124
 BV BOUND001  y...1125
 BV BOUND001  y...1126
 BV BOUND001  y...1127
 BV BOUND001  y...1128
 BV BOUND001  y...1129
 BV BOUND001  y...1130
 BV BOUND001  y...1131
 BV BOUND001  y...1132
 BV BOUND001  y...1133
 BV BOUND001  y...1134
 BV BOUND001  y...1135
 BV BOUND001  y...1136
 BV BOUND001  y...1137
 BV BOUND001  y...1138
 BV BOUND001  y...1139
 BV BOUND001  y...1140
 BV BOUND001  y...1141
 BV BOUND001  y...1142
 BV BOUND001  y...1143
 BV BOUND001  y...1144
 BV BOUND001  y...1145
 BV BOUND001  y...1146
 BV BOUND001  y...1147
 BV BOUND001  y...1148
 BV BOUND001  y...1149
 BV BOUND001  y...1150
 BV BOUND001  y...1151
 BV BOUND001  y...1152
 BV BOUND001  y...1153
 BV BOUND001  y...1154
 BV BOUND001  y...1155
 BV BOUND001  y...1156
 BV BOUND001  y...1157
 BV BOUND001  y...1158
 BV BOUND001  y...1159
 BV BOUND001  y...1160
 BV BOUND001  y...1161
 BV BOUND001  y...1162
 BV BOUND001  y...1163
 BV BOUND001  y...1164
 BV BOUND001  y...1165
 BV BOUND001  y...1166
 BV BOUND001  y...1167
 BV BOUND001  y...1168
 BV BOUND001  y...1169
 BV BOUND001  y...1170
 BV BOUND001  y...1171
 BV BOUND001  y...1172
 BV BOUND001  y...1173
 BV BOUND001  y...1174
 BV BOUND001  y...1175
 BV BOUND001  y...1176
 BV BOUND001  y...1177
 BV BOUND001  y...1178
 BV BOUND001  y...1179
 BV BOUND001  y...1180
 BV BOUND001  y...1181
 BV BOUND001  y...1182
 BV BOUND001  y...1183
 BV BOUND001  y...1184
 BV BOUND001  y...1185
 BV BOUND001  y...1186
 BV BOUND001  y...1187
 BV BOUND001  y...1188
 BV BOUND001  y...1189
 BV BOUND001  y...1190
 BV BOUND001  y...1191
 BV BOUND001  y...1192
 BV BOUND001  y...1193
 BV BOUND001  y...1194
 BV BOUND001  y...1195
 BV BOUND001  y...1196
 BV BOUND001  y...1197
 BV BOUND001  y...1198
 BV BOUND001  y...1199
 BV BOUND001  y...1200
 BV BOUND001  y...1201
 BV BOUND001  y...1202
 BV BOUND001  y...1203
 BV BOUND001  y...1204
 BV BOUND001  y...1205
 BV BOUND001  y...1206
 BV BOUND001  y...1207
 BV BOUND001  y...1208
 BV BOUND001  y...1209
 BV BOUND001  y...1210
 BV BOUND001  y...1211
 BV BOUND001  y...1212
 BV BOUND001  y...1213
 BV BOUND001  y...1214
 BV BOUND001  y...1215
 BV BOUND001  y...1216
 BV BOUND001  y...1217
 BV BOUND001  y...1218
 BV BOUND001  y...1219
 BV BOUND001  y...1220
 BV BOUND001  y...1221
 BV BOUND001  y...1222
 BV BOUND001  y...1223
 BV BOUND001  y...1224
 BV BOUND001  y...1225
 BV BOUND001  y...1226
 BV BOUND001  y...1227
 BV BOUND001  y...1228
 BV BOUND001  y...1229
 BV BOUND001  y...1230
 BV BOUND001  y...1231
 BV BOUND001  y...1232
 BV BOUND001  y...1233
 BV BOUND001  y...1234
 BV BOUND001  y...1235
 BV BOUND001  y...1236
 BV BOUND001  y...1237
 BV BOUND001  y...1238
 BV BOUND001  y...1239
 BV BOUND001  y...1240
 BV BOUND001  y...1241
 BV BOUND001  y...1242
 BV BOUND001  y...1243
 BV BOUND001  y...1244
 BV BOUND001  y...1245
 BV BOUND001  y...1246
 BV BOUND001  y...1247
 BV BOUND001  y...1248
 BV BOUND001  y...1249
 BV BOUND001  y...1250
 BV BOUND001  y...1251
 BV BOUND001  y...1252
 BV BOUND001  y...1253
 BV BOUND001  y...1254
 BV BOUND001  y...1255
 BV BOUND001  y...1256
 BV BOUND001  y...1257
 BV BOUND001  y...1258
 BV BOUND001  y...1259
 BV BOUND001  y...1260
 BV BOUND001  y...1261
 BV BOUND001  y...1262
 BV BOUND001  y...1263
 BV BOUND001  y...1264
 BV BOUND001  y...1265
 BV BOUND001  y...1266
 BV BOUND001  y...1267
 BV BOUND001  y...1268
 BV BOUND001  y...1269
 BV BOUND001  y...1270
 BV BOUND001  y...1271
 BV BOUND001  y...1272
 BV BOUND001  y...1273
 BV BOUND001  y...1274
 BV BOUND001  y...1275
 BV BOUND001  y...1276
 BV BOUND001  y...1277
 BV BOUND001  y...1278
 BV BOUND001  y...1279
 BV BOUND001  y...1280
 BV BOUND001  y...1281
 BV BOUND001  y...1282
 BV BOUND001  y...1283
 BV BOUND001  y...1284
 BV BOUND001  y...1285
 BV BOUND001  y...1286
 BV BOUND001  y...1287
 BV BOUND001  y...1288
 BV BOUND001  y...1289
 BV BOUND001  y...1290
 BV BOUND001  y...1291
 BV BOUND001  y...1292
 BV BOUND001  y...1293
 BV BOUND001  y...1294
 BV BOUND001  y...1295
 BV BOUND001  y...1296
 BV BOUND001  y...1297
 BV BOUND001  y...1298
 BV BOUND001  y...1299
 BV BOUND001  y...1300
 BV BOUND001  y...1301
 BV BOUND001  y...1302
 BV BOUND001  y...1303
 BV BOUND001  y...1304
 BV BOUND001  y...1305
 BV BOUND001  y...1306
 BV BOUND001  y...1307
 BV BOUND001  y...1308
 BV BOUND001  y...1309
 BV BOUND001  y...1310
 BV BOUND001  y...1311
 BV BOUND001  y...1312
 BV BOUND001  y...1313
 BV BOUND001  y...1314
 BV BOUND001  y...1315
 BV BOUND001  y...1316
 BV BOUND001  y...1317
 BV BOUND001  y...1318
 BV BOUND001  y...1319
 BV BOUND001  y...1320
 BV BOUND001  y...1321
 BV BOUND001  y...1322
 BV BOUND001  y...1323
 BV BOUND001  y...1324
 BV BOUND001  y...1325
 BV BOUND001  y...1326
 BV BOUND001  y...1327
 BV BOUND001  y...1328
 BV BOUND001  y...1329
 BV BOUND001  y...1330
 BV BOUND001  y...1331
 BV BOUND001  y...1332
 BV BOUND001  y...1333
 BV BOUND001  y...1334
 BV BOUND001  y...1335
 BV BOUND001  y...1336
 BV BOUND001  y...1337
 BV BOUND001  y...1338
 BV BOUND001  y...1339
 BV BOUND001  y...1340
 BV BOUND001  y...1341
 BV BOUND001  y...1342
 BV BOUND001  y...1343
 BV BOUND001  y...1344
 BV BOUND001  y...1345
 BV BOUND001  y...1346
 BV BOUND001  y...1347
 BV BOUND001  y...1348
 BV BOUND001  y...1349
 BV BOUND001  y...1350
 BV BOUND001  y...1351
 BV BOUND001  y...1352
 BV BOUND001  y...1353
 BV BOUND001  y...1354
 BV BOUND001  y...1355
 BV BOUND001  y...1356
 BV BOUND001  y...1357
 BV BOUND001  y...1358
 BV BOUND001  y...1359
 BV BOUND001  y...1360
 BV BOUND001  y...1361
 BV BOUND001  y...1362
 BV BOUND001  y...1363
 BV BOUND001  y...1364
 BV BOUND001  y...1365
 BV BOUND001  y...1366
 BV BOUND001  y...1367
 BV BOUND001  y...1368
 BV BOUND001  y...1369
 BV BOUND001  y...1370
 BV BOUND001  y...1371
 BV BOUND001  y...1372
 BV BOUND001  y...1373
 BV BOUND001  y...1374
 BV BOUND001  y...1375
 BV BOUND001  y...1376
 BV BOUND001  y...1377
 BV BOUND001  y...1378
 BV BOUND001  y...1379
 BV BOUND001  y...1380
 BV BOUND001  y...1381
 BV BOUND001  y...1382
 BV BOUND001  y...1383
 BV BOUND001  y...1384
 BV BOUND001  y...1385
 BV BOUND001  y...1386
 BV BOUND001  y...1387
 BV BOUND001  y...1388
 BV BOUND001  y...1389
 BV BOUND001  y...1390
 BV BOUND001  y...1391
 BV BOUND001  y...1392
 BV BOUND001  y...1393
 BV BOUND001  y...1394
 BV BOUND001  y...1395
 BV BOUND001  y...1396
 BV BOUND001  y...1397
 BV BOUND001  y...1398
 BV BOUND001  y...1399
 BV BOUND001  y...1400
 BV BOUND001  y...1401
 BV BOUND001  y...1402
 BV BOUND001  y...1403
 BV BOUND001  y...1404
 BV BOUND001  y...1405
 BV BOUND001  y...1406
 BV BOUND001  y...1407
 BV BOUND001  y...1408
 BV BOUND001  y...1409
 BV BOUND001  y...1410
 BV BOUND001  y...1411
 BV BOUND001  y...1412
 BV BOUND001  y...1413
 BV BOUND001  y...1414
 BV BOUND001  y...1415
 BV BOUND001  y...1416
 BV BOUND001  y...1417
 BV BOUND001  y...1418
 BV BOUND001  y...1419
 BV BOUND001  y...1420
 BV BOUND001  y...1421
 BV BOUND001  y...1422
 BV BOUND001  y...1423
 BV BOUND001  y...1424
 BV BOUND001  y...1425
 BV BOUND001  y...1426
 BV BOUND001  y...1427
 BV BOUND001  y...1428
 BV BOUND001  y...1429
 BV BOUND001  y...1430
 BV BOUND001  y...1431
 BV BOUND001  y...1432
 BV BOUND001  y...1433
 BV BOUND001  y...1434
 BV BOUND001  y...1435
 BV BOUND001  y...1436
 BV BOUND001  y...1437
 BV BOUND001  y...1438
 BV BOUND001  y...1439
 BV BOUND001  y...1440
 BV BOUND001  y...1441
 BV BOUND001  y...1442
 BV BOUND001  y...1443
 BV BOUND001  y...1444
 BV BOUND001  y...1445
 BV BOUND001  y...1446
 BV BOUND001  y...1447
 BV BOUND001  y...1448
 BV BOUND001  y...1449
 BV BOUND001  y...1450
 BV BOUND001  y...1451
 BV BOUND001  y...1452
 BV BOUND001  y...1453
 BV BOUND001  y...1454
 BV BOUND001  y...1455
 BV BOUND001  y...1456
 BV BOUND001  y...1457
 BV BOUND001  y...1458
 BV BOUND001  y...1459
 BV BOUND001  y...1460
 BV BOUND001  y...1461
 BV BOUND001  y...1462
 BV BOUND001  y...1463
 BV BOUND001  y...1464
 BV BOUND001  y...1465
 BV BOUND001  y...1466
 BV BOUND001  y...1467
 BV BOUND001  y...1468
 BV BOUND001  y...1469
 BV BOUND001  y...1470
 BV BOUND001  y...1471
 BV BOUND001  y...1472
 BV BOUND001  y...1473
 BV BOUND001  y...1474
 BV BOUND001  y...1475
 BV BOUND001  y...1476
 BV BOUND001  y...1477
 BV BOUND001  y...1478
 BV BOUND001  y...1479
 BV BOUND001  y...1480
 BV BOUND001  y...1481
 BV BOUND001  y...1482
 BV BOUND001  y...1483
 BV BOUND001  y...1484
 BV BOUND001  y...1485
 BV BOUND001  y...1486
 BV BOUND001  y...1487
 BV BOUND001  y...1488
 BV BOUND001  y...1489
 BV BOUND001  y...1490
 BV BOUND001  y...1491
 BV BOUND001  y...1492
 BV BOUND001  y...1493
 BV BOUND001  y...1494
 BV BOUND001  y...1495
 BV BOUND001  y...1496
 BV BOUND001  y...1497
 BV BOUND001  y...1498
 BV BOUND001  y...1499
 BV BOUND001  y...1500
 BV BOUND001  y...1501
 BV BOUND001  y...1502
 BV BOUND001  y...1503
 BV BOUND001  y...1504
 BV BOUND001  y...1505
 BV BOUND001  y...1506
 BV BOUND001  y...1507
 BV BOUND001  y...1508
 BV BOUND001  y...1509
 BV BOUND001  y...1510
 BV BOUND001  y...1511
 BV BOUND001  y...1512
 BV BOUND001  y...1513
 BV BOUND001  y...1514
 BV BOUND001  y...1515
 BV BOUND001  y...1516
 BV BOUND001  y...1517
 BV BOUND001  y...1518
 BV BOUND001  y...1519
 BV BOUND001  y...1520
 BV BOUND001  y...1521
 BV BOUND001  y...1522
 BV BOUND001  y...1523
 BV BOUND001  y...1524
 BV BOUND001  y...1525
 BV BOUND001  y...1526
 BV BOUND001  y...1527
 BV BOUND001  y...1528
 BV BOUND001  y...1529
 BV BOUND001  y...1530
 BV BOUND001  y...1531
 BV BOUND001  y...1532
 BV BOUND001  y...1533
 BV BOUND001  y...1534
 BV BOUND001  y...1535
 BV BOUND001  y...1536
 BV BOUND001  y...1537
 BV BOUND001  y...1538
 BV BOUND001  y...1539
 BV BOUND001  y...1540
 BV BOUND001  y...1541
 BV BOUND001  y...1542
 BV BOUND001  y...1543
 BV BOUND001  y...1544
 BV BOUND001  y...1545
 BV BOUND001  y...1546
 BV BOUND001  y...1547
 BV BOUND001  y...1548
 BV BOUND001  y...1549
 BV BOUND001  y...1550
 BV BOUND001  y...1551
 BV BOUND001  y...1552
 BV BOUND001  y...1553
 BV BOUND001  y...1554
 BV BOUND001  y...1555
 BV BOUND001  y...1556
 BV BOUND001  y...1557
 BV BOUND001  y...1558
 BV BOUND001  y...1559
 BV BOUND001  y...1560
 BV BOUND001  y...1561
 BV BOUND001  y...1562
 BV BOUND001  y...1563
 BV BOUND001  y...1564
 BV BOUND001  y...1565
 BV BOUND001  y...1566
 BV BOUND001  y...1567
 BV BOUND001  y...1568
 BV BOUND001  y...1569
 BV BOUND001  y...1570
 BV BOUND001  y...1571
 BV BOUND001  y...1572
 BV BOUND001  y...1573
 BV BOUND001  y...1574
 BV BOUND001  y...1575
 BV BOUND001  y...1576
 BV BOUND001  y...1577
 BV BOUND001  y...1578
 BV BOUND001  y...1579
 BV BOUND001  y...1580
 BV BOUND001  y...1581
 BV BOUND001  y...1582
 BV BOUND001  y...1583
 BV BOUND001  y...1584
 BV BOUND001  y...1585
 BV BOUND001  y...1586
 BV BOUND001  y...1587
 BV BOUND001  y...1588
 BV BOUND001  y...1589
 BV BOUND001  y...1590
 BV BOUND001  y...1591
 BV BOUND001  y...1592
 BV BOUND001  y...1593
 BV BOUND001  y...1594
 BV BOUND001  y...1595
 BV BOUND001  y...1596
 BV BOUND001  y...1597
 BV BOUND001  y...1598
 BV BOUND001  y...1599
 BV BOUND001  y...1600
 BV BOUND001  y...1601
 BV BOUND001  y...1602
 BV BOUND001  y...1603
 BV BOUND001  y...1604
 BV BOUND001  y...1605
 BV BOUND001  y...1606
 BV BOUND001  y...1607
 BV BOUND001  y...1608
 BV BOUND001  y...1609
 BV BOUND001  y...1610
 BV BOUND001  y...1611
 BV BOUND001  y...1612
 BV BOUND001  y...1613
 BV BOUND001  y...1614
 BV BOUND001  y...1615
 BV BOUND001  y...1616
 BV BOUND001  y...1617
 BV BOUND001  y...1618
 BV BOUND001  y...1619
 BV BOUND001  y...1620
 BV BOUND001  y...1621
 BV BOUND001  y...1622
 BV BOUND001  y...1623
 BV BOUND001  y...1624
 BV BOUND001  y...1625
 BV BOUND001  y...1626
 BV BOUND001  y...1627
 BV BOUND001  y...1628
 BV BOUND001  y...1629
 BV BOUND001  y...1630
 BV BOUND001  y...1631
 BV BOUND001  y...1632
 BV BOUND001  y...1633
 BV BOUND001  y...1634
 BV BOUND001  y...1635
 BV BOUND001  y...1636
 BV BOUND001  y...1637
 BV BOUND001  y...1638
 BV BOUND001  y...1639
 BV BOUND001  y...1640
 BV BOUND001  y...1641
 BV BOUND001  y...1642
 BV BOUND001  y...1643
 BV BOUND001  y...1644
 BV BOUND001  y...1645
 BV BOUND001  y...1646
 BV BOUND001  y...1647
 BV BOUND001  y...1648
 BV BOUND001  y...1649
 BV BOUND001  y...1650
 BV BOUND001  y...1651
 BV BOUND001  y...1652
 BV BOUND001  y...1653
 BV BOUND001  y...1654
 BV BOUND001  y...1655
 BV BOUND001  y...1656
 BV BOUND001  y...1657
 BV BOUND001  y...1658
 BV BOUND001  y...1659
 BV BOUND001  y...1660
 BV BOUND001  y...1661
 BV BOUND001  y...1662
 BV BOUND001  y...1663
 BV BOUND001  y...1664
 BV BOUND001  y...1665
 BV BOUND001  y...1666
 BV BOUND001  y...1667
 BV BOUND001  y...1668
 BV BOUND001  y...1669
 BV BOUND001  y...1670
 BV BOUND001  y...1671
 BV BOUND001  y...1672
 BV BOUND001  y...1673
 BV BOUND001  y...1674
 BV BOUND001  y...1675
 BV BOUND001  y...1676
 BV BOUND001  y...1677
 BV BOUND001  y...1678
 BV BOUND001  y...1679
 BV BOUND001  y...1680
 BV BOUND001  y...1681
 BV BOUND001  y...1682
 BV BOUND001  y...1683
 BV BOUND001  y...1684
 BV BOUND001  y...1685
 BV BOUND001  y...1686
 BV BOUND001  y...1687
 BV BOUND001  y...1688
 BV BOUND001  y...1689
 BV BOUND001  y...1690
 BV BOUND001  y...1691
 BV BOUND001  y...1692
 BV BOUND001  y...1693
 BV BOUND001  y...1694
 BV BOUND001  y...1695
 BV BOUND001  y...1696
 BV BOUND001  y...1697
 BV BOUND001  y...1698
 BV BOUND001  y...1699
 BV BOUND001  y...1700
 BV BOUND001  y...1701
 BV BOUND001  y...1702
 BV BOUND001  y...1703
 BV BOUND001  y...1704
 BV BOUND001  y...1705
 BV BOUND001  y...1706
 BV BOUND001  y...1707
 BV BOUND001  y...1708
 BV BOUND001  y...1709
 BV BOUND001  y...1710
 BV BOUND001  y...1711
 BV BOUND001  y...1712
 BV BOUND001  y...1713
 BV BOUND001  y...1714
 BV BOUND001  y...1715
 BV BOUND001  y...1716
 BV BOUND001  y...1717
 BV BOUND001  y...1718
 BV BOUND001  y...1719
 BV BOUND001  y...1720
 BV BOUND001  y...1721
 BV BOUND001  y...1722
 BV BOUND001  y...1723
 BV BOUND001  y...1724
 BV BOUND001  y...1725
 BV BOUND001  y...1726
 BV BOUND001  y...1727
 BV BOUND001  y...1728
 BV BOUND001  y...1729
 BV BOUND001  y...1730
 BV BOUND001  y...1731
 BV BOUND001  y...1732
 BV BOUND001  y...1733
 BV BOUND001  y...1734
 BV BOUND001  y...1735
 BV BOUND001  y...1736
 BV BOUND001  y...1737
 BV BOUND001  y...1738
 BV BOUND001  y...1739
 BV BOUND001  y...1740
 BV BOUND001  y...1741
 BV BOUND001  y...1742
 BV BOUND001  y...1743
 BV BOUND001  y...1744
 BV BOUND001  y...1745
 BV BOUND001  y...1746
 BV BOUND001  y...1747
 BV BOUND001  y...1748
 BV BOUND001  y...1749
 BV BOUND001  y...1750
 BV BOUND001  y...1751
 BV BOUND001  y...1752
 BV BOUND001  y...1753
 BV BOUND001  y...1754
 BV BOUND001  y...1755
 BV BOUND001  y...1756
 BV BOUND001  y...1757
 BV BOUND001  y...1758
 BV BOUND001  y...1759
 BV BOUND001  y...1760
 BV BOUND001  y...1761
 BV BOUND001  y...1762
 BV BOUND001  y...1763
 BV BOUND001  y...1764
 BV BOUND001  y...1765
 BV BOUND001  y...1766
 BV BOUND001  y...1767
 BV BOUND001  y...1768
 BV BOUND001  y...1769
 BV BOUND001  y...1770
 BV BOUND001  y...1771
 BV BOUND001  y...1772
 BV BOUND001  y...1773
 BV BOUND001  y...1774
 BV BOUND001  y...1775
 BV BOUND001  y...1776
 BV BOUND001  y...1777
 BV BOUND001  y...1778
 BV BOUND001  y...1779
 BV BOUND001  y...1780
 BV BOUND001  y...1781
 BV BOUND001  y...1782
 BV BOUND001  y...1783
 BV BOUND001  y...1784
 BV BOUND001  y...1785
 BV BOUND001  y...1786
 BV BOUND001  y...1787
 BV BOUND001  y...1788
 BV BOUND001  y...1789
 BV BOUND001  y...1790
 BV BOUND001  y...1791
 BV BOUND001  y...1792
 BV BOUND001  y...1793
 BV BOUND001  y...1794
 BV BOUND001  y...1795
 BV BOUND001  y...1796
 BV BOUND001  y...1797
 BV BOUND001  y...1798
 BV BOUND001  y...1799
 BV BOUND001  y...1800
 BV BOUND001  y...1801
 BV BOUND001  y...1802
 BV BOUND001  y...1803
 BV BOUND001  y...1804
 BV BOUND001  y...1805
 BV BOUND001  y...1806
 BV BOUND001  y...1807
 BV BOUND001  y...1808
 BV BOUND001  y...1809
 BV BOUND001  y...1810
 BV BOUND001  y...1811
 BV BOUND001  y...1812
 BV BOUND001  y...1813
 BV BOUND001  y...1814
 BV BOUND001  y...1815
 BV BOUND001  y...1816
 BV BOUND001  y...1817
 BV BOUND001  y...1818
 BV BOUND001  y...1819
 BV BOUND001  y...1820
 BV BOUND001  y...1821
 BV BOUND001  y...1822
 BV BOUND001  y...1823
 BV BOUND001  y...1824
 BV BOUND001  y...1825
 BV BOUND001  y...1826
 BV BOUND001  y...1827
 BV BOUND001  y...1828
 BV BOUND001  y...1829
 BV BOUND001  y...1830
 BV BOUND001  y...1831
 BV BOUND001  y...1832
 BV BOUND001  y...1833
 BV BOUND001  y...1834
 BV BOUND001  y...1835
 BV BOUND001  y...1836
 BV BOUND001  y...1837
 BV BOUND001  y...1838
 BV BOUND001  y...1839
 BV BOUND001  y...1840
 BV BOUND001  y...1841
 BV BOUND001  y...1842
 BV BOUND001  y...1843
 BV BOUND001  y...1844
 BV BOUND001  y...1845
 BV BOUND001  y...1846
 BV BOUND001  y...1847
 BV BOUND001  y...1848
 BV BOUND001  y...1849
 BV BOUND001  y...1850
 BV BOUND001  y...1851
 BV BOUND001  y...1852
 BV BOUND001  y...1853
 BV BOUND001  y...1854
 BV BOUND001  y...1855
 BV BOUND001  y...1856
 BV BOUND001  y...1857
 BV BOUND001  y...1858
 BV BOUND001  y...1859
 BV BOUND001  y...1860
 BV BOUND001  y...1861
 BV BOUND001  y...1862
 BV BOUND001  y...1863
 BV BOUND001  y...1864
 BV BOUND001  y...1865
 BV BOUND001  y...1866
 BV BOUND001  y...1867
 BV BOUND001  y...1868
 BV BOUND001  y...1869
 BV BOUND001  y...1870
 BV BOUND001  y...1871
 BV BOUND001  y...1872
 BV BOUND001  y...1873
 BV BOUND001  y...1874
 BV BOUND001  y...1875
 BV BOUND001  y...1876
 BV BOUND001  y...1877
 BV BOUND001  y...1878
 BV BOUND001  y...1879
 BV BOUND001  y...1880
 BV BOUND001  y...1881
 BV BOUND001  y...1882
 BV BOUND001  y...1883
 BV BOUND001  y...1884
 BV BOUND001  y...1885
 BV BOUND001  y...1886
 BV BOUND001  y...1887
 BV BOUND001  y...1888
 BV BOUND001  y...1889
 BV BOUND001  y...1890
 BV BOUND001  y...1891
 BV BOUND001  y...1892
 BV BOUND001  y...1893
 BV BOUND001  y...1894
 BV BOUND001  y...1895
 BV BOUND001  y...1896
 BV BOUND001  y...1897
 BV BOUND001  y...1898
 BV BOUND001  y...1899
 BV BOUND001  y...1900
 BV BOUND001  y...1901
 BV BOUND001  y...1902
 BV BOUND001  y...1903
 BV BOUND001  y...1904
 BV BOUND001  y...1905
 BV BOUND001  y...1906
 BV BOUND001  y...1907
 BV BOUND001  y...1908
 BV BOUND001  y...1909
 BV BOUND001  y...1910
 BV BOUND001  y...1911
 BV BOUND001  y...1912
 BV BOUND001  y...1913
 BV BOUND001  y...1914
 BV BOUND001  y...1915
 BV BOUND001  y...1916
 BV BOUND001  y...1917
 BV BOUND001  y...1918
 BV BOUND001  y...1919
 BV BOUND001  y...1920
 BV BOUND001  y...1921
 BV BOUND001  y...1922
 BV BOUND001  y...1923
 BV BOUND001  y...1924
 BV BOUND001  y...1925
 BV BOUND001  y...1926
 BV BOUND001  y...1927
 BV BOUND001  y...1928
 BV BOUND001  y...1929
 BV BOUND001  y...1930
 BV BOUND001  y...1931
 BV BOUND001  y...1932
 BV BOUND001  y...1933
 BV BOUND001  y...1934
 BV BOUND001  y...1935
 BV BOUND001  y...1936
 BV BOUND001  y...1937
 BV BOUND001  y...1938
 BV BOUND001  y...1939
 BV BOUND001  y...1940
 BV BOUND001  y...1941
 BV BOUND001  y...1942
 BV BOUND001  y...1943
 BV BOUND001  y...1944
 BV BOUND001  y...1945
 BV BOUND001  y...1946
 BV BOUND001  y...1947
 BV BOUND001  y...1948
 BV BOUND001  y...1949
 BV BOUND001  y...1950
 BV BOUND001  y...1951
 BV BOUND001  y...1952
 BV BOUND001  y...1953
 BV BOUND001  y...1954
 BV BOUND001  y...1955
 BV BOUND001  y...1956
 BV BOUND001  y...1957
 BV BOUND001  y...1958
 BV BOUND001  y...1959
 BV BOUND001  y...1960
 BV BOUND001  y...1961
 BV BOUND001  y...1962
 BV BOUND001  y...1963
 BV BOUND001  y...1964
 BV BOUND001  y...1965
 BV BOUND001  y...1966
 BV BOUND001  y...1967
 BV BOUND001  y...1968
 BV BOUND001  y...1969
 BV BOUND001  y...1970
 BV BOUND001  y...1971
 BV BOUND001  y...1972
 BV BOUND001  y...1973
 BV BOUND001  y...1974
 BV BOUND001  y...1975
 BV BOUND001  y...1976
 BV BOUND001  y...1977
 BV BOUND001  y...1978
 BV BOUND001  y...1979
 BV BOUND001  y...1980
 BV BOUND001  y...1981
 BV BOUND001  y...1982
 BV BOUND001  y...1983
 BV BOUND001  y...1984
 BV BOUND001  y...1985
 BV BOUND001  y...1986
 BV BOUND001  y...1987
 BV BOUND001  y...1988
 BV BOUND001  y...1989
 BV BOUND001  y...1990
 BV BOUND001  y...1991
 BV BOUND001  y...1992
 BV BOUND001  y...1993
 BV BOUND001  y...1994
 BV BOUND001  y...1995
 BV BOUND001  y...1996
 BV BOUND001  y...1997
 BV BOUND001  y...1998
 BV BOUND001  y...1999
 BV BOUND001  y...2000
 BV BOUND001  y...2001
 BV BOUND001  y...2002
 BV BOUND001  y...2003
 BV BOUND001  y...2004
 BV BOUND001  y...2005
 BV BOUND001  y...2006
 BV BOUND001  y...2007
 BV BOUND001  y...2008
 BV BOUND001  y...2009
 BV BOUND001  y...2010
 BV BOUND001  y...2011
 BV BOUND001  y...2012
 BV BOUND001  y...2013
 BV BOUND001  y...2014
 BV BOUND001  y...2015
 BV BOUND001  y...2016
 BV BOUND001  y...2017
 BV BOUND001  y...2018
 BV BOUND001  y...2019
 BV BOUND001  y...2020
 BV BOUND001  y...2021
 BV BOUND001  y...2022
 BV BOUND001  y...2023
 BV BOUND001  y...2024
 BV BOUND001  y...2025
 BV BOUND001  y...2026
 BV BOUND001  y...2027
 BV BOUND001  y...2028
 BV BOUND001  y...2029
 BV BOUND001  y...2030
 BV BOUND001  y...2031
 BV BOUND001  y...2032
 BV BOUND001  y...2033
 BV BOUND001  y...2034
 BV BOUND001  y...2035
 BV BOUND001  y...2036
 BV BOUND001  y...2037
 BV BOUND001  y...2038
 BV BOUND001  y...2039
 BV BOUND001  y...2040
 BV BOUND001  y...2041
 BV BOUND001  y...2042
 BV BOUND001  y...2043
 BV BOUND001  y...2044
 BV BOUND001  y...2045
 BV BOUND001  y...2046
 BV BOUND001  y...2047
 BV BOUND001  y...2048
 BV BOUND001  y...2049
 BV BOUND001  y...2050
 BV BOUND001  y...2051
 BV BOUND001  y...2052
 BV BOUND001  y...2053
 BV BOUND001  y...2054
 BV BOUND001  y...2055
 BV BOUND001  y...2056
 BV BOUND001  y...2057
 BV BOUND001  y...2058
 BV BOUND001  y...2059
 BV BOUND001  y...2060
 BV BOUND001  y...2061
 BV BOUND001  y...2062
 BV BOUND001  y...2063
 BV BOUND001  y...2064
 BV BOUND001  y...2065
 BV BOUND001  y...2066
 BV BOUND001  y...2067
 BV BOUND001  y...2068
 BV BOUND001  y...2069
 BV BOUND001  y...2070
 BV BOUND001  y...2071
 BV BOUND001  y...2072
 BV BOUND001  y...2073
 BV BOUND001  y...2074
 BV BOUND001  y...2075
 BV BOUND001  y...2076
 BV BOUND001  y...2077
 BV BOUND001  y...2078
 BV BOUND001  y...2079
 BV BOUND001  y...2080
 BV BOUND001  y...2081
 BV BOUND001  y...2082
 BV BOUND001  y...2083
 BV BOUND001  y...2084
 BV BOUND001  y...2085
 BV BOUND001  y...2086
 BV BOUND001  y...2087
 BV BOUND001  y...2088
 BV BOUND001  y...2089
 BV BOUND001  y...2090
 BV BOUND001  y...2091
 BV BOUND001  y...2092
 BV BOUND001  y...2093
 BV BOUND001  y...2094
 BV BOUND001  y...2095
 BV BOUND001  y...2096
 BV BOUND001  y...2097
 BV BOUND001  y...2098
 BV BOUND001  y...2099
 BV BOUND001  y...2100
 BV BOUND001  y...2101
 BV BOUND001  y...2102
 BV BOUND001  y...2103
 BV BOUND001  y...2104
 BV BOUND001  y...2105
 BV BOUND001  y...2106
 BV BOUND001  y...2107
 BV BOUND001  y...2108
 BV BOUND001  y...2109
 BV BOUND001  y...2110
 BV BOUND001  y...2111
 BV BOUND001  y...2112
 BV BOUND001  y...2113
 BV BOUND001  y...2114
 BV BOUND001  y...2115
 BV BOUND001  y...2116
 BV BOUND001  y...2117
 BV BOUND001  y...2118
 BV BOUND001  y...2119
 BV BOUND001  y...2120
 BV BOUND001  y...2121
 BV BOUND001  y...2122
 BV BOUND001  y...2123
 BV BOUND001  y...2124
 BV BOUND001  y...2125
 BV BOUND001  y...2126
 BV BOUND001  y...2127
 BV BOUND001  y...2128
 BV BOUND001  y...2129
 BV BOUND001  y...2130
 BV BOUND001  y...2131
 BV BOUND001  y...2132
 BV BOUND001  y...2133
 BV BOUND001  y...2134
 BV BOUND001  y...2135
 BV BOUND001  y...2136
 BV BOUND001  y...2137
 BV BOUND001  y...2138
 BV BOUND001  y...2139
 BV BOUND001  y...2140
 BV BOUND001  y...2141
 BV BOUND001  y...2142
 BV BOUND001  y...2143
 BV BOUND001  y...2144
 BV BOUND001  y...2145
 BV BOUND001  y...2146
 BV BOUND001  y...2147
 BV BOUND001  y...2148
 BV BOUND001  y...2149
 BV BOUND001  y...2150
 BV BOUND001  y...2151
 BV BOUND001  y...2152
 BV BOUND001  y...2153
 BV BOUND001  y...2154
 BV BOUND001  y...2155
 BV BOUND001  y...2156
 BV BOUND001  y...2157
 BV BOUND001  y...2158
 BV BOUND001  y...2159
 BV BOUND001  y...2160
 BV BOUND001  y...2161
 BV BOUND001  y...2162
 BV BOUND001  y...2163
 BV BOUND001  y...2164
 BV BOUND001  y...2165
 BV BOUND001  y...2166
 BV BOUND001  y...2167
 BV BOUND001  y...2168
 BV BOUND001  y...2169
 BV BOUND001  y...2170
 BV BOUND001  y...2171
 BV BOUND001  y...2172
 BV BOUND001  y...2173
 BV BOUND001  y...2174
 BV BOUND001  y...2175
 BV BOUND001  y...2176
 BV BOUND001  y...2177
 BV BOUND001  y...2178
 BV BOUND001  y...2179
 BV BOUND001  y...2180
 BV BOUND001  y...2181
 BV BOUND001  y...2182
 BV BOUND001  y...2183
 BV BOUND001  y...2184
 BV BOUND001  y...2185
 BV BOUND001  y...2186
 BV BOUND001  y...2187
 BV BOUND001  y...2188
 BV BOUND001  y...2189
 BV BOUND001  y...2190
 BV BOUND001  y...2191
 BV BOUND001  y...2192
 BV BOUND001  y...2193
 BV BOUND001  y...2194
 BV BOUND001  y...2195
 BV BOUND001  y...2196
 BV BOUND001  y...2197
 BV BOUND001  y...2198
 BV BOUND001  y...2199
 BV BOUND001  y...2200
 BV BOUND001  y...2201
 BV BOUND001  y...2202
 BV BOUND001  y...2203
 BV BOUND001  y...2204
 BV BOUND001  y...2205
 BV BOUND001  y...2206
 BV BOUND001  y...2207
 BV BOUND001  y...2208
 BV BOUND001  y...2209
 BV BOUND001  y...2210
 BV BOUND001  y...2211
 BV BOUND001  y...2212
 BV BOUND001  y...2213
 BV BOUND001  y...2214
 BV BOUND001  y...2215
 BV BOUND001  y...2216
 BV BOUND001  y...2217
 BV BOUND001  y...2218
 BV BOUND001  y...2219
 BV BOUND001  y...2220
 BV BOUND001  y...2221
 BV BOUND001  y...2222
 BV BOUND001  y...2223
 BV BOUND001  y...2224
 BV BOUND001  y...2225
 BV BOUND001  y...2226
 BV BOUND001  y...2227
 BV BOUND001  y...2228
 BV BOUND001  y...2229
 BV BOUND001  y...2230
 BV BOUND001  y...2231
 BV BOUND001  y...2232
 BV BOUND001  y...2233
 BV BOUND001  y...2234
 BV BOUND001  y...2235
 BV BOUND001  y...2236
 BV BOUND001  y...2237
 BV BOUND001  y...2238
 BV BOUND001  y...2239
 BV BOUND001  y...2240
 BV BOUND001  y...2241
 BV BOUND001  y...2242
 BV BOUND001  y...2243
 BV BOUND001  y...2244
 BV BOUND001  y...2245
 BV BOUND001  y...2246
 BV BOUND001  y...2247
 BV BOUND001  y...2248
 BV BOUND001  y...2249
 BV BOUND001  y...2250
 BV BOUND001  y...2251
 BV BOUND001  y...2252
 BV BOUND001  y...2253
 BV BOUND001  y...2254
 BV BOUND001  y...2255
 BV BOUND001  y...2256
 BV BOUND001  y...2257
 BV BOUND001  y...2258
 BV BOUND001  y...2259
 BV BOUND001  y...2260
 BV BOUND001  y...2261
 BV BOUND001  y...2262
 BV BOUND001  y...2263
 BV BOUND001  y...2264
 BV BOUND001  y...2265
 BV BOUND001  y...2266
 BV BOUND001  y...2267
 BV BOUND001  y...2268
 BV BOUND001  y...2269
 BV BOUND001  y...2270
 BV BOUND001  y...2271
 BV BOUND001  y...2272
 BV BOUND001  y...2273
 BV BOUND001  y...2274
 BV BOUND001  y...2275
 BV BOUND001  y...2276
 BV BOUND001  y...2277
 BV BOUND001  y...2278
 BV BOUND001  y...2279
 BV BOUND001  y...2280
 BV BOUND001  y...2281
 BV BOUND001  y...2282
 BV BOUND001  y...2283
 BV BOUND001  y...2284
 BV BOUND001  y...2285
 BV BOUND001  y...2286
 BV BOUND001  y...2287
 BV BOUND001  y...2288
 BV BOUND001  y...2289
 BV BOUND001  y...2290
 BV BOUND001  y...2291
 BV BOUND001  y...2292
 BV BOUND001  y...2293
 BV BOUND001  y...2294
 BV BOUND001  y...2295
 BV BOUND001  y...2296
 BV BOUND001  y...2297
 BV BOUND001  y...2298
 BV BOUND001  y...2299
 BV BOUND001  y...2300
 BV BOUND001  y...2301
 BV BOUND001  y...2302
 BV BOUND001  y...2303
 BV BOUND001  y...2304
 BV BOUND001  y...2305
 BV BOUND001  y...2306
 BV BOUND001  y...2307
 BV BOUND001  y...2308
 BV BOUND001  y...2309
 BV BOUND001  y...2310
 BV BOUND001  y...2311
 BV BOUND001  y...2312
 BV BOUND001  y...2313
 BV BOUND001  y...2314
 BV BOUND001  y...2315
 BV BOUND001  y...2316
 BV BOUND001  y...2317
 BV BOUND001  y...2318
 BV BOUND001  y...2319
 BV BOUND001  y...2320
 BV BOUND001  y...2321
 BV BOUND001  y...2322
 BV BOUND001  y...2323
 BV BOUND001  y...2324
 BV BOUND001  y...2325
 BV BOUND001  y...2326
 BV BOUND001  y...2327
 BV BOUND001  y...2328
 BV BOUND001  y...2329
 BV BOUND001  y...2330
 BV BOUND001  y...2331
 BV BOUND001  y...2332
 BV BOUND001  y...2333
 BV BOUND001  y...2334
 BV BOUND001  y...2335
 BV BOUND001  y...2336
 BV BOUND001  y...2337
 BV BOUND001  y...2338
 BV BOUND001  y...2339
 BV BOUND001  y...2340
 BV BOUND001  y...2341
 BV BOUND001  y...2342
 BV BOUND001  y...2343
 BV BOUND001  y...2344
 BV BOUND001  y...2345
 BV BOUND001  y...2346
 BV BOUND001  y...2347
 BV BOUND001  y...2348
 BV BOUND001  y...2349
 BV BOUND001  y...2350
 BV BOUND001  y...2351
 BV BOUND001  y...2352
 BV BOUND001  y...2353
 BV BOUND001  y...2354
 BV BOUND001  y...2355
 BV BOUND001  y...2356
 BV BOUND001  y...2357
 BV BOUND001  y...2358
 BV BOUND001  y...2359
 BV BOUND001  y...2360
 BV BOUND001  y...2361
 BV BOUND001  y...2362
 BV BOUND001  y...2363
 BV BOUND001  y...2364
 BV BOUND001  y...2365
 BV BOUND001  y...2366
 BV BOUND001  y...2367
 BV BOUND001  y...2368
 BV BOUND001  y...2369
 BV BOUND001  y...2370
 BV BOUND001  y...2371
 BV BOUND001  y...2372
 BV BOUND001  y...2373
 BV BOUND001  y...2374
 BV BOUND001  y...2375
 BV BOUND001  y...2376
 BV BOUND001  y...2377
 BV BOUND001  y...2378
 BV BOUND001  y...2379
 BV BOUND001  y...2380
 BV BOUND001  y...2381
 BV BOUND001  y...2382
 BV BOUND001  y...2383
 BV BOUND001  y...2384
 BV BOUND001  y...2385
 BV BOUND001  y...2386
 BV BOUND001  y...2387
 BV BOUND001  y...2388
 BV BOUND001  y...2389
 BV BOUND001  y...2390
 BV BOUND001  y...2391
 BV BOUND001  y...2392
 BV BOUND001  y...2393
 BV BOUND001  y...2394
 BV BOUND001  y...2395
 BV BOUND001  y...2396
 BV BOUND001  y...2397
 BV BOUND001  y...2398
 BV BOUND001  y...2399
 BV BOUND001  y...2400
 BV BOUND001  y...2401
 BV BOUND001  y...2402
 BV BOUND001  y...2403
 BV BOUND001  y...2404
 BV BOUND001  y...2405
 BV BOUND001  y...2406
 BV BOUND001  y...2407
 BV BOUND001  y...2408
 BV BOUND001  y...2409
 BV BOUND001  y...2410
 BV BOUND001  y...2411
 BV BOUND001  y...2412
 BV BOUND001  y...2413
 BV BOUND001  y...2414
 BV BOUND001  y...2415
 BV BOUND001  y...2416
 BV BOUND001  y...2417
 BV BOUND001  y...2418
 BV BOUND001  y...2419
 BV BOUND001  y...2420
 BV BOUND001  y...2421
 BV BOUND001  y...2422
 BV BOUND001  y...2423
 BV BOUND001  y...2424
 BV BOUND001  y...2425
 BV BOUND001  y...2426
 BV BOUND001  y...2427
 BV BOUND001  y...2428
 BV BOUND001  y...2429
 BV BOUND001  y...2430
 BV BOUND001  y...2431
 BV BOUND001  y...2432
 BV BOUND001  y...2433
 BV BOUND001  y...2434
 BV BOUND001  y...2435
 BV BOUND001  y...2436
 BV BOUND001  y...2437
 BV BOUND001  y...2438
 BV BOUND001  y...2439
 BV BOUND001  y...2440
 BV BOUND001  y...2441
 BV BOUND001  y...2442
 BV BOUND001  y...2443
 BV BOUND001  y...2444
 BV BOUND001  y...2445
 BV BOUND001  y...2446
 BV BOUND001  y...2447
 BV BOUND001  y...2448
 BV BOUND001  y...2449
 BV BOUND001  y...2450
 BV BOUND001  y...2451
 BV BOUND001  y...2452
 BV BOUND001  y...2453
 BV BOUND001  y...2454
 BV BOUND001  y...2455
 BV BOUND001  y...2456
 BV BOUND001  y...2457
 BV BOUND001  y...2458
 BV BOUND001  y...2459
 BV BOUND001  y...2460
 BV BOUND001  y...2461
 BV BOUND001  y...2462
 BV BOUND001  y...2463
 BV BOUND001  y...2464
 BV BOUND001  y...2465
 BV BOUND001  y...2466
 BV BOUND001  y...2467
 BV BOUND001  y...2468
 BV BOUND001  y...2469
 BV BOUND001  y...2470
 BV BOUND001  y...2471
 BV BOUND001  y...2472
 BV BOUND001  y...2473
 BV BOUND001  y...2474
 BV BOUND001  y...2475
 BV BOUND001  y...2476
 BV BOUND001  y...2477
 BV BOUND001  y...2478
 BV BOUND001  y...2479
 BV BOUND001  y...2480
 BV BOUND001  y...2481
 BV BOUND001  y...2482
 BV BOUND001  y...2483
 BV BOUND001  y...2484
 BV BOUND001  y...2485
 BV BOUND001  y...2486
 BV BOUND001  y...2487
 BV BOUND001  y...2488
 BV BOUND001  y...2489
 BV BOUND001  y...2490
 BV BOUND001  y...2491
 BV BOUND001  y...2492
 BV BOUND001  y...2493
 BV BOUND001  y...2494
 BV BOUND001  y...2495
 BV BOUND001  y...2496
 BV BOUND001  y...2497
 BV BOUND001  y...2498
 BV BOUND001  y...2499
 BV BOUND001  y...2500
 BV BOUND001  y...2501
 BV BOUND001  y...2502
 BV BOUND001  y...2503
 BV BOUND001  y...2504
 BV BOUND001  y...2505
 BV BOUND001  y...2506
 BV BOUND001  y...2507
 BV BOUND001  y...2508
 BV BOUND001  y...2509
 BV BOUND001  y...2510
 BV BOUND001  y...2511
 BV BOUND001  y...2512
 BV BOUND001  y...2513
 BV BOUND001  y...2514
 BV BOUND001  y...2515
 BV BOUND001  y...2516
 BV BOUND001  y...2517
 BV BOUND001  y...2518
 BV BOUND001  y...2519
 BV BOUND001  y...2520
 BV BOUND001  y...2521
 BV BOUND001  y...2522
 BV BOUND001  y...2523
 BV BOUND001  y...2524
 BV BOUND001  y...2525
 BV BOUND001  y...2526
 BV BOUND001  y...2527
 BV BOUND001  y...2528
 BV BOUND001  y...2529
 BV BOUND001  y...2530
 BV BOUND001  y...2531
 BV BOUND001  y...2532
 BV BOUND001  y...2533
 BV BOUND001  y...2534
 BV BOUND001  y...2535
 BV BOUND001  y...2536
 BV BOUND001  y...2537
 BV BOUND001  y...2538
 BV BOUND001  y...2539
 BV BOUND001  y...2540
 BV BOUND001  y...2541
 BV BOUND001  y...2542
 BV BOUND001  y...2543
 BV BOUND001  y...2544
 BV BOUND001  y...2545
 BV BOUND001  y...2546
 BV BOUND001  y...2547
 BV BOUND001  y...2548
 BV BOUND001  y...2549
 BV BOUND001  y...2550
 BV BOUND001  y...2551
 BV BOUND001  y...2552
 BV BOUND001  y...2553
 BV BOUND001  y...2554
 BV BOUND001  y...2555
 BV BOUND001  y...2556
 BV BOUND001  y...2557
 BV BOUND001  y...2558
 BV BOUND001  y...2559
 BV BOUND001  y...2560
 BV BOUND001  y...2561
 BV BOUND001  y...2562
 BV BOUND001  y...2563
 BV BOUND001  y...2564
 BV BOUND001  y...2565
 BV BOUND001  y...2566
 BV BOUND001  y...2567
 BV BOUND001  y...2568
 BV BOUND001  y...2569
 BV BOUND001  y...2570
 BV BOUND001  y...2571
 BV BOUND001  y...2572
 BV BOUND001  y...2573
 BV BOUND001  y...2574
 BV BOUND001  y...2575
 BV BOUND001  y...2576
 BV BOUND001  y...2577
 BV BOUND001  y...2578
 BV BOUND001  y...2579
 BV BOUND001  y...2580
 BV BOUND001  y...2581
 BV BOUND001  y...2582
 BV BOUND001  y...2583
 BV BOUND001  y...2584
 BV BOUND001  y...2585
 BV BOUND001  y...2586
 BV BOUND001  y...2587
 BV BOUND001  y...2588
 BV BOUND001  y...2589
 BV BOUND001  y...2590
 BV BOUND001  y...2591
 BV BOUND001  y...2592
 BV BOUND001  y...2593
 BV BOUND001  y...2594
 BV BOUND001  y...2595
 BV BOUND001  y...2596
 BV BOUND001  y...2597
 BV BOUND001  y...2598
 BV BOUND001  y...2599
 BV BOUND001  y...2600
 BV BOUND001  y...2601
 BV BOUND001  y...2602
 BV BOUND001  y...2603
 BV BOUND001  y...2604
 BV BOUND001  y...2605
 BV BOUND001  y...2606
 BV BOUND001  y...2607
 BV BOUND001  y...2608
 BV BOUND001  y...2609
 BV BOUND001  y...2610
 BV BOUND001  y...2611
 BV BOUND001  y...2612
 BV BOUND001  y...2613
 BV BOUND001  y...2614
 BV BOUND001  y...2615
 BV BOUND001  y...2616
 BV BOUND001  y...2617
 BV BOUND001  y...2618
 BV BOUND001  y...2619
 BV BOUND001  y...2620
 BV BOUND001  y...2621
 BV BOUND001  y...2622
 BV BOUND001  y...2623
 BV BOUND001  y...2624
 BV BOUND001  y...2625
 BV BOUND001  y...2626
 BV BOUND001  y...2627
 BV BOUND001  y...2628
 BV BOUND001  y...2629
 BV BOUND001  y...2630
 BV BOUND001  y...2631
 BV BOUND001  y...2632
 BV BOUND001  y...2633
 BV BOUND001  y...2634
 BV BOUND001  y...2635
 BV BOUND001  y...2636
 BV BOUND001  y...2637
 BV BOUND001  y...2638
 BV BOUND001  y...2639
 BV BOUND001  y...2640
 BV BOUND001  y...2641
 BV BOUND001  y...2642
 BV BOUND001  y...2643
 BV BOUND001  y...2644
 BV BOUND001  y...2645
 BV BOUND001  y...2646
 BV BOUND001  y...2647
 BV BOUND001  y...2648
 BV BOUND001  y...2649
 BV BOUND001  y...2650
 BV BOUND001  y...2651
 BV BOUND001  y...2652
 BV BOUND001  y...2653
 BV BOUND001  y...2654
 BV BOUND001  y...2655
 BV BOUND001  y...2656
 BV BOUND001  y...2657
 BV BOUND001  y...2658
 BV BOUND001  y...2659
 BV BOUND001  y...2660
 BV BOUND001  y...2661
 BV BOUND001  y...2662
 BV BOUND001  y...2663
 BV BOUND001  y...2664
 BV BOUND001  y...2665
 BV BOUND001  y...2666
 BV BOUND001  y...2667
 BV BOUND001  y...2668
 BV BOUND001  y...2669
 BV BOUND001  y...2670
 BV BOUND001  y...2671
 BV BOUND001  y...2672
 BV BOUND001  y...2673
 BV BOUND001  y...2674
 BV BOUND001  y...2675
 BV BOUND001  y...2676
 BV BOUND001  y...2677
 BV BOUND001  y...2678
 BV BOUND001  y...2679
 BV BOUND001  y...2680
 BV BOUND001  y...2681
 BV BOUND001  y...2682
 BV BOUND001  y...2683
 BV BOUND001  y...2684
 BV BOUND001  y...2685
 BV BOUND001  y...2686
 BV BOUND001  y...2687
 BV BOUND001  y...2688
 BV BOUND001  y...2689
 BV BOUND001  y...2690
 BV BOUND001  y...2691
 BV BOUND001  y...2692
 BV BOUND001  y...2693
 BV BOUND001  y...2694
 BV BOUND001  y...2695
 BV BOUND001  y...2696
 BV BOUND001  y...2697
 BV BOUND001  y...2698
 BV BOUND001  y...2699
 BV BOUND001  y...2700
 BV BOUND001  y...2701
 BV BOUND001  y...2702
 BV BOUND001  y...2703
 BV BOUND001  y...2704
 BV BOUND001  y...2705
 BV BOUND001  y...2706
 BV BOUND001  y...2707
 BV BOUND001  y...2708
 BV BOUND001  y...2709
 BV BOUND001  y...2710
 BV BOUND001  y...2711
 BV BOUND001  y...2712
 BV BOUND001  y...2713
 BV BOUND001  y...2714
 BV BOUND001  y...2715
 BV BOUND001  y...2716
 BV BOUND001  y...2717
 BV BOUND001  y...2718
 BV BOUND001  y...2719
 BV BOUND001  y...2720
 BV BOUND001  y...2721
 BV BOUND001  y...2722
 BV BOUND001  y...2723
 BV BOUND001  y...2724
 BV BOUND001  y...2725
 BV BOUND001  y...2726
 BV BOUND001  y...2727
 BV BOUND001  y...2728
 BV BOUND001  y...2729
 BV BOUND001  y...2730
 BV BOUND001  y...2731
 BV BOUND001  y...2732
 BV BOUND001  y...2733
 BV BOUND001  y...2734
 BV BOUND001  y...2735
 BV BOUND001  y...2736
 BV BOUND001  y...2737
 BV BOUND001  y...2738
 BV BOUND001  y...2739
 BV BOUND001  y...2740
 BV BOUND001  y...2741
 BV BOUND001  y...2742
 BV BOUND001  y...2743
 BV BOUND001  y...2744
 BV BOUND001  y...2745
 BV BOUND001  y...2746
 BV BOUND001  y...2747
 BV BOUND001  y...2748
 BV BOUND001  y...2749
 BV BOUND001  y...2750
 BV BOUND001  y...2751
 BV BOUND001  y...2752
 BV BOUND001  y...2753
 BV BOUND001  y...2754
 BV BOUND001  y...2755
 BV BOUND001  y...2756
 BV BOUND001  y...2757
 BV BOUND001  y...2758
 BV BOUND001  y...2759
 BV BOUND001  y...2760
 BV BOUND001  y...2761
 BV BOUND001  y...2762
 BV BOUND001  y...2763
 BV BOUND001  y...2764
 BV BOUND001  y...2765
 BV BOUND001  y...2766
 BV BOUND001  y...2767
 BV BOUND001  y...2768
 BV BOUND001  y...2769
 BV BOUND001  y...2770
 BV BOUND001  y...2771
 BV BOUND001  y...2772
 BV BOUND001  y...2773
 BV BOUND001  y...2774
 BV BOUND001  y...2775
 BV BOUND001  y...2776
 BV BOUND001  y...2777
 BV BOUND001  y...2778
 BV BOUND001  y...2779
 BV BOUND001  y...2780
 BV BOUND001  y...2781
 BV BOUND001  y...2782
 BV BOUND001  y...2783
 BV BOUND001  y...2784
 BV BOUND001  y...2785
 BV BOUND001  y...2786
 BV BOUND001  y...2787
 BV BOUND001  y...2788
 BV BOUND001  y...2789
 BV BOUND001  y...2790
 BV BOUND001  y...2791
 BV BOUND001  y...2792
 BV BOUND001  y...2793
 BV BOUND001  y...2794
 BV BOUND001  y...2795
 BV BOUND001  y...2796
 BV BOUND001  y...2797
 BV BOUND001  y...2798
 BV BOUND001  y...2799
 BV BOUND001  y...2800
 BV BOUND001  y...2801
 BV BOUND001  y...2802
 BV BOUND001  y...2803
 BV BOUND001  y...2804
 BV BOUND001  y...2805
 BV BOUND001  y...2806
 BV BOUND001  y...2807
 BV BOUND001  y...2808
 BV BOUND001  y...2809
 BV BOUND001  y...2810
 BV BOUND001  y...2811
 BV BOUND001  y...2812
 BV BOUND001  y...2813
 BV BOUND001  y...2814
 BV BOUND001  y...2815
 BV BOUND001  y...2816
 BV BOUND001  y...2817
 BV BOUND001  y...2818
 BV BOUND001  y...2819
 BV BOUND001  y...2820
 BV BOUND001  y...2821
 BV BOUND001  y...2822
 BV BOUND001  y...2823
 BV BOUND001  y...2824
 BV BOUND001  y...2825
 BV BOUND001  y...2826
 BV BOUND001  y...2827
 BV BOUND001  y...2828
 BV BOUND001  y...2829
 BV BOUND001  y...2830
 BV BOUND001  y...2831
 BV BOUND001  y...2832
 BV BOUND001  y...2833
 BV BOUND001  y...2834
 BV BOUND001  y...2835
 BV BOUND001  y...2836
 BV BOUND001  y...2837
 BV BOUND001  y...2838
 BV BOUND001  y...2839
 BV BOUND001  y...2840
 BV BOUND001  y...2841
 BV BOUND001  y...2842
 BV BOUND001  y...2843
 BV BOUND001  y...2844
 BV BOUND001  y...2845
 BV BOUND001  y...2846
 BV BOUND001  y...2847
 BV BOUND001  y...2848
 BV BOUND001  y...2849
 BV BOUND001  y...2850
 BV BOUND001  y...2851
 BV BOUND001  y...2852
 BV BOUND001  y...2853
 BV BOUND001  y...2854
 BV BOUND001  y...2855
 BV BOUND001  y...2856
 BV BOUND001  y...2857
 BV BOUND001  y...2858
 BV BOUND001  y...2859
 BV BOUND001  y...2860
 BV BOUND001  y...2861
 BV BOUND001  y...2862
 BV BOUND001  y...2863
 BV BOUND001  y...2864
 BV BOUND001  y...2865
 BV BOUND001  y...2866
 BV BOUND001  y...2867
 BV BOUND001  y...2868
 BV BOUND001  y...2869
 BV BOUND001  y...2870
 BV BOUND001  y...2871
 BV BOUND001  y...2872
 BV BOUND001  y...2873
 BV BOUND001  y...2874
 BV BOUND001  y...2875
 BV BOUND001  y...2876
 BV BOUND001  y...2877
 BV BOUND001  y...2878
 BV BOUND001  y...2879
 BV BOUND001  y...2880
 BV BOUND001  y...2881
 BV BOUND001  y...2882
 BV BOUND001  y...2883
 BV BOUND001  y...2884
 BV BOUND001  y...2885
 BV BOUND001  y...2886
 BV BOUND001  y...2887
 BV BOUND001  y...2888
 BV BOUND001  y...2889
 BV BOUND001  y...2890
 BV BOUND001  y...2891
 BV BOUND001  y...2892
 BV BOUND001  y...2893
 BV BOUND001  y...2894
 BV BOUND001  y...2895
 BV BOUND001  y...2896
 BV BOUND001  y...2897
 BV BOUND001  y...2898
 BV BOUND001  y...2899
 BV BOUND001  y...2900
 BV BOUND001  y...2901
 BV BOUND001  y...2902
 BV BOUND001  y...2903
 BV BOUND001  y...2904
 BV BOUND001  y...2905
 BV BOUND001  y...2906
 BV BOUND001  y...2907
 BV BOUND001  y...2908
 BV BOUND001  y...2909
 BV BOUND001  y...2910
 BV BOUND001  y...2911
 BV BOUND001  y...2912
 BV BOUND001  y...2913
 BV BOUND001  y...2914
 BV BOUND001  y...2915
 BV BOUND001  y...2916
 BV BOUND001  y...2917
 BV BOUND001  y...2918
 BV BOUND001  y...2919
 BV BOUND001  y...2920
 BV BOUND001  y...2921
 BV BOUND001  y...2922
 BV BOUND001  y...2923
 BV BOUND001  y...2924
 BV BOUND001  y...2925
 BV BOUND001  y...2926
 BV BOUND001  y...2927
 BV BOUND001  y...2928
 BV BOUND001  y...2929
 BV BOUND001  y...2930
 BV BOUND001  y...2931
 BV BOUND001  y...2932
 BV BOUND001  y...2933
 BV BOUND001  y...2934
 BV BOUND001  y...2935
 BV BOUND001  y...2936
 BV BOUND001  y...2937
 BV BOUND001  y...2938
 BV BOUND001  y...2939
 BV BOUND001  y...2940
 BV BOUND001  y...2941
 BV BOUND001  y...2942
 BV BOUND001  y...2943
 BV BOUND001  y...2944
 BV BOUND001  y...2945
 BV BOUND001  y...2946
 BV BOUND001  y...2947
 BV BOUND001  y...2948
 BV BOUND001  y...2949
 BV BOUND001  y...2950
 BV BOUND001  y...2951
 BV BOUND001  y...2952
 BV BOUND001  y...2953
 BV BOUND001  y...2954
 BV BOUND001  y...2955
 BV BOUND001  y...2956
 BV BOUND001  y...2957
 BV BOUND001  y...2958
 BV BOUND001  y...2959
 BV BOUND001  y...2960
 BV BOUND001  y...2961
 BV BOUND001  y...2962
 BV BOUND001  y...2963
 BV BOUND001  y...2964
 BV BOUND001  y...2965
 BV BOUND001  y...2966
 BV BOUND001  y...2967
 BV BOUND001  y...2968
 BV BOUND001  y...2969
 BV BOUND001  y...2970
 BV BOUND001  y...2971
 BV BOUND001  y...2972
 BV BOUND001  y...2973
 BV BOUND001  y...2974
 BV BOUND001  y...2975
 BV BOUND001  y...2976
 BV BOUND001  y...2977
 BV BOUND001  y...2978
 BV BOUND001  y...2979
 BV BOUND001  y...2980
 BV BOUND001  y...2981
 BV BOUND001  y...2982
 BV BOUND001  y...2983
 BV BOUND001  y...2984
 BV BOUND001  y...2985
 BV BOUND001  y...2986
 BV BOUND001  y...2987
 BV BOUND001  y...2988
ENDATA
