\ Equation counts
\     Total        E        G        L        N        X        C        B
\       687       32      302      353        0        0        0        0
\ 
\ Variable counts
\                  x        b        i      s1s      s2s       sc       si
\     Total     cont   binary  integer     sos1     sos2    scont     sint
\       328       72      200       56        0        0        0        0
\ 
\ Nonzero counts
\     Total    const       NL      DLL
\      3979     3301      678        0
\ 
Minimize
 obj: x2 + x3 + x4 + x5 + x6 + x7 + x8 + x9 + x10 + x11 + x12 + x13 + x14 + x15 + x16 + x17 + x18 + x19 
  + x20 + x21 + x22 + x23 + x24 + x25 + 10 x26 + 10 x27 + 10 x28 + 10 x29 + 10 x30 + 10 x31 + 10 x32 
  + 10 x33 + 0 i34 + 0 i35 + 0 i36 + 0 i37 + 0 i38 + 0 i39 + 0 i40 + 0 i41 + 0 i42 + 0 i43 + 0 i44 + 0 i45 
  + 0 i46 + 0 i47 + 0 i48 + 0 i49 + 0 i50 + 0 i51 + 0 i52 + 0 i53 + 0 i54 + 0 i55 + 0 i56 + 0 i57 + 0 i58 
  + 0 i59 + 0 i60 + 0 i61 + 0 i62 + 0 i63 + 0 i64 + 0 i65 + 0 i66 + 0 i67 + 0 i68 + 0 i69 + 0 i70 + 0 i71 
  + 0 i72 + 0 i73 + 0 i74 + 0 i75 + 0 i76 + 0 i77 + 0 i78 + 0 i79 + 0 i80 + 0 i81 + 0 i82 + 0 i83 + 0 i84 
  + 0 i85 + 0 i86 + 0 i87 + 0 i88 + 0 i89 + 0 x90 + 0 x91 + 0 x92 + 0 x93 + 0 x94 + 0 x95 + 0 x96 + 0 x97 
  + 0 x98 + 0 x99 + 0 x100 + 0 x101 + 0 x102 + 0 x103 + 0 x104 + 0 x105 + 0 x106 + 0 x107 + 0 x108 + 0 x109 
  + 0 x110 + 0 x111 + 0 x112 + 0 x113 + 0 x114 + 0 x115 + 0 x116 + 0 x117 + 0 x118 + 0 x119 + 0 x120 
  + 0 x121 + 0 b122 + 0 b123 + 0 b124 + 0 b125 + 0 b126 + 0 b127 + 0 b128 + 0 b129 + 0 b130 + 0 b131 
  + 0 b132 + 0 b133 + 0 b134 + 0 b135 + 0 b136 + 0 b137 + 0 b138 + 0 b139 + 0 b140 + 0 b141 + 0 b142 
  + 0 b143 + 0 b144 + 0 b145 + 0 b146 + 0 b147 + 0 b148 + 0 b149 + 0 b150 + 0 b151 + 0 b152 + 0 b153 
  + 0 b154 + 0 b155 + 0 b156 + 0 b157 + 0 b158 + 0 b159 + 0 b160 + 0 b161 + 0 b162 + 0 b163 + 0 b164 
  + 0 b165 + 0 b166 + 0 b167 + 0 b168 + 0 b169 + 0 b170 + 0 b171 + 0 b172 + 0 b173 + 0 b174 + 0 b175 
  + 0 b176 + 0 b177 + 0 b178 + 0 b179 + 0 b180 + 0 b181 + 0 b182 + 0 b183 + 0 b184 + 0 b185 + 0 b186 
  + 0 b187 + 0 b188 + 0 b189 + 0 b190 + 0 b191 + 0 b192 + 0 b193 + 0 b194 + 0 b195 + 0 b196 + 0 b197 
  + 0 b198 + 0 b199 + 0 b200 + 0 b201 + 0 b202 + 0 b203 + 0 b204 + 0 b205 + 0 b206 + 0 b207 + 0 b208 
  + 0 b209 + 0 b210 + 0 b211 + 0 b212 + 0 b213 + 0 b214 + 0 b215 + 0 b216 + 0 b217 + 0 b218 + 0 b219 
  + 0 b220 + 0 b221 + 0 b222 + 0 b223 + 0 b224 + 0 b225 + 0 b226 + 0 b227 + 0 b228 + 0 b229 + 0 b230 
  + 0 b231 + 0 b232 + 0 b233 + 0 b234 + 0 b235 + 0 b236 + 0 b237 + 0 b238 + 0 b239 + 0 b240 + 0 b241 
  + 0 b242 + 0 b243 + 0 b244 + 0 b245 + 0 b246 + 0 b247 + 0 b248 + 0 b249 + 0 b250 + 0 b251 + 0 b252 
  + 0 b253 + 0 b254 + 0 b255 + 0 b256 + 0 b257 + 0 b258 + 0 b259 + 0 b260 + 0 b261 + 0 b262 + 0 b263 
  + 0 b264 + 0 b265 + 0 b266 + 0 b267 + 0 b268 + 0 b269 + 0 b270 + 0 b271 + 0 b272 + 0 b273 + 0 b274 
  + 0 b275 + 0 b276 + 0 b277 + 0 b278 + 0 b279 + 0 b280 + 0 b281 + 0 b282 + 0 b283 + 0 b284 + 0 b285 
  + 0 b286 + 0 b287 + 0 b288 + 0 b289 + 0 b290 + 0 b291 + 0 b292 + 0 b293 + 0 b294 + 0 b295 + 0 b296 
  + 0 b297 + 0 b298 + 0 b299 + 0 b300 + 0 b301 + 0 b302 + 0 b303 + 0 b304 + 0 b305 + 0 b306 + 0 b307 
  + 0 b308 + 0 b309 + 0 b310 + 0 b311 + 0 b312 + 0 b313 + 0 b314 + 0 b315 + 0 b316 + 0 b317 + 0 b318 
  + 0 b319 + 0 b320 + 0 b321 + 0 x322 + 0 x323 + 0 x324 + 0 x325 + 0 x326 + 0 x327 + 0 x328 + 0 x329

Subject To
 e2: i34 + i35 + i36 + i37 + i38 + i39 + i40 <= 4
 e3: i41 + i42 + i43 + i44 + i45 + i46 + i47 <= 4
 e4: i48 + i49 + i50 + i51 + i52 + i53 + i54 <= 4
 e5: i55 + i56 + i57 + i58 + i59 + i60 + i61 <= 4
 e6: i62 + i63 + i64 + i65 + i66 + i67 + i68 <= 4
 e7: i69 + i70 + i71 + i72 + i73 + i74 + i75 <= 4
 e8: i76 + i77 + i78 + i79 + i80 + i81 + i82 <= 4
 e9: i83 + i84 + i85 + i86 + i87 + i88 + i89 <= 4
 e10: x2 - 0.1287 x90 + 0.1287 x91 >= 0
 e11: x3 + 0.19305 x91 - 0.19305 x92 >= 0
 e12: x4 + 0.1287 x91 - 0.1287 x93 >= 0
 e13: x5 - 0.1287 x94 + 0.1287 x95 >= 0
 e14: x6 + 0.19305 x95 - 0.19305 x96 >= 0
 e15: x7 + 0.1287 x95 - 0.1287 x97 >= 0
 e16: x8 - 0.1287 x98 + 0.1287 x99 >= 0
 e17: x9 + 0.19305 x99 - 0.19305 x100 >= 0
 e18: x10 + 0.1287 x99 - 0.1287 x101 >= 0
 e19: x11 - 0.1725 x102 + 0.1725 x103 >= 0
 e20: x12 + 0.22815 x103 - 0.22815 x104 >= 0
 e21: x13 + 0.1521 x103 - 0.1521 x105 >= 0
 e22: x14 - 0.1725 x106 + 0.1725 x107 >= 0
 e23: x15 + 0.22815 x107 - 0.22815 x108 >= 0
 e24: x16 + 0.1521 x107 - 0.1521 x109 >= 0
 e25: x17 - 0.1521 x110 + 0.1521 x111 >= 0
 e26: x18 + 0.19305 x111 - 0.19305 x112 >= 0
 e27: x19 + 0.1521 x111 - 0.1521 x113 >= 0
 e28: x20 - 0.1521 x114 + 0.1521 x115 >= 0
 e29: x21 + 0.19305 x115 - 0.19305 x116 >= 0
 e30: x22 + 0.1521 x115 - 0.1521 x117 >= 0
 e31: x23 - 0.1521 x118 + 0.1521 x119 >= 0
 e32: x24 + 0.19305 x119 - 0.19305 x120 >= 0
 e33: x25 + 0.1521 x119 - 0.1521 x121 >= 0
 e34: b122 + b123 + b124 + b125 + b126 + b127 + b128 <= 2
 e35: b129 + b130 + b131 + b132 + b133 + b134 + b135 <= 2
 e36: b136 + b137 + b138 + b139 + b140 + b141 + b142 <= 2
 e37: b143 + b144 + b145 + b146 + b147 + b148 + b149 <= 2
 e38: b150 + b151 + b152 + b153 + b154 + b155 + b156 <= 2
 e39: b157 + b158 + b159 + b160 + b161 + b162 + b163 <= 2
 e40: b164 + b165 + b166 + b167 + b168 + b169 + b170 <= 2
 e41: b171 + b172 + b173 + b174 + b175 + b176 + b177 <= 2
 e42: b122 + b124 <= 1
 e43: b122 + b125 <= 1
 e44: b122 + b126 <= 1
 e45: b123 + b124 <= 1
 e46: b123 + b125 <= 1
 e47: b123 + b126 <= 1
 e48: b124 + b126 <= 1
 e49: b124 + b127 <= 1
 e50: b124 + b128 <= 1
 e51: b125 + b126 <= 1
 e52: b125 + b127 <= 1
 e53: b125 + b128 <= 1
 e54: b126 + b127 <= 1
 e55: b126 + b128 <= 1
 e56: b129 + b131 <= 1
 e57: b129 + b132 <= 1
 e58: b129 + b133 <= 1
 e59: b130 + b131 <= 1
 e60: b130 + b132 <= 1
 e61: b130 + b133 <= 1
 e62: b131 + b133 <= 1
 e63: b131 + b134 <= 1
 e64: b131 + b135 <= 1
 e65: b132 + b133 <= 1
 e66: b132 + b134 <= 1
 e67: b132 + b135 <= 1
 e68: b133 + b134 <= 1
 e69: b133 + b135 <= 1
 e70: b136 + b138 <= 1
 e71: b136 + b139 <= 1
 e72: b136 + b140 <= 1
 e73: b137 + b138 <= 1
 e74: b137 + b139 <= 1
 e75: b137 + b140 <= 1
 e76: b138 + b140 <= 1
 e77: b138 + b141 <= 1
 e78: b138 + b142 <= 1
 e79: b139 + b140 <= 1
 e80: b139 + b141 <= 1
 e81: b139 + b142 <= 1
 e82: b140 + b141 <= 1
 e83: b140 + b142 <= 1
 e84: b143 + b145 <= 1
 e85: b143 + b146 <= 1
 e86: b143 + b147 <= 1
 e87: b144 + b145 <= 1
 e88: b144 + b146 <= 1
 e89: b144 + b147 <= 1
 e90: b145 + b147 <= 1
 e91: b145 + b148 <= 1
 e92: b145 + b149 <= 1
 e93: b146 + b147 <= 1
 e94: b146 + b148 <= 1
 e95: b146 + b149 <= 1
 e96: b147 + b148 <= 1
 e97: b147 + b149 <= 1
 e98: b150 + b152 <= 1
 e99: b150 + b153 <= 1
 e100: b150 + b154 <= 1
 e101: b151 + b152 <= 1
 e102: b151 + b153 <= 1
 e103: b151 + b154 <= 1
 e104: b152 + b154 <= 1
 e105: b152 + b155 <= 1
 e106: b152 + b156 <= 1
 e107: b153 + b154 <= 1
 e108: b153 + b155 <= 1
 e109: b153 + b156 <= 1
 e110: b154 + b155 <= 1
 e111: b154 + b156 <= 1
 e112: b157 + b159 <= 1
 e113: b157 + b160 <= 1
 e114: b157 + b161 <= 1
 e115: b158 + b159 <= 1
 e116: b158 + b160 <= 1
 e117: b158 + b161 <= 1
 e118: b159 + b161 <= 1
 e119: b159 + b162 <= 1
 e120: b159 + b163 <= 1
 e121: b160 + b161 <= 1
 e122: b160 + b162 <= 1
 e123: b160 + b163 <= 1
 e124: b161 + b162 <= 1
 e125: b161 + b163 <= 1
 e126: b164 + b166 <= 1
 e127: b164 + b167 <= 1
 e128: b164 + b168 <= 1
 e129: b165 + b166 <= 1
 e130: b165 + b167 <= 1
 e131: b165 + b168 <= 1
 e132: b166 + b168 <= 1
 e133: b166 + b169 <= 1
 e134: b166 + b170 <= 1
 e135: b167 + b168 <= 1
 e136: b167 + b169 <= 1
 e137: b167 + b170 <= 1
 e138: b168 + b169 <= 1
 e139: b168 + b170 <= 1
 e140: b171 + b173 <= 1
 e141: b171 + b174 <= 1
 e142: b171 + b175 <= 1
 e143: b172 + b173 <= 1
 e144: b172 + b174 <= 1
 e145: b172 + b175 <= 1
 e146: b173 + b175 <= 1
 e147: b173 + b176 <= 1
 e148: b173 + b177 <= 1
 e149: b174 + b175 <= 1
 e150: b174 + b176 <= 1
 e151: b174 + b177 <= 1
 e152: b175 + b176 <= 1
 e153: b175 + b177 <= 1
 e154: b122 + b123 + b124 + b125 + b126 + b127 + b128 <= 0
 e155: b131 + b132 + b133 + b135 <= 0
 e156: b138 + b139 + b140 + b142 <= 0
 e157: b147 + b149 <= 0
 e158: b150 + b151 + b154 + b155 + b156 <= 0
 e159: b157 + b158 + b159 + b160 + b162 <= 0
 e160: b164 + b165 + b166 + b167 + b169 <= 0
 e161: b171 + b172 + b173 + b174 + b176 <= 0
 e162: - 200 x26 - 330 i34 - 260 i35 - 480 i36 - 440 i37 - 711 i38 - 350 i39 - 300 i40 + 1000 b178 + 1100 b179 
  + 1200 b180 + 1300 b181 + 1400 b182 + 1500 b183 <= 0
 e163: - 200 x26 - 330 i34 - 260 i35 - 480 i36 - 440 i37 - 711 i38 - 350 i39 - 300 i40 + 1000 b184 + 1100 b185 
  + 1200 b186 + 1300 b187 + 1400 b188 + 1500 b189 <= 0
 e164: - 200 x26 - 330 i34 - 260 i35 - 480 i36 - 440 i37 - 711 i38 - 350 i39 - 300 i40 + 1000 b190 + 1100 b191 
  + 1200 b192 + 1300 b193 + 1400 b194 + 1500 b195 <= 0
 e165: - 200 x27 - 330 i41 - 260 i42 - 480 i43 - 440 i44 - 711 i45 - 350 i46 - 300 i47 + 1000 b196 + 1100 b197 
  + 1200 b198 + 1300 b199 + 1400 b200 + 1500 b201 <= 0
 e166: - 200 x27 - 330 i41 - 260 i42 - 480 i43 - 440 i44 - 711 i45 - 350 i46 - 300 i47 + 1000 b202 + 1100 b203 
  + 1200 b204 + 1300 b205 + 1400 b206 + 1500 b207 <= 0
 e167: - 200 x27 - 330 i41 - 260 i42 - 480 i43 - 440 i44 - 711 i45 - 350 i46 - 300 i47 + 1000 b208 + 1100 b209 
  + 1200 b210 + 1300 b211 + 1400 b212 + 1500 b213 <= 0
 e168: - 200 x28 - 330 i48 - 260 i49 - 480 i50 - 440 i51 - 711 i52 - 350 i53 - 300 i54 + 1000 b214 + 1100 b215 
  + 1200 b216 + 1300 b217 + 1400 b218 + 1500 b219 <= 0
 e169: - 200 x28 - 330 i48 - 260 i49 - 480 i50 - 440 i51 - 711 i52 - 350 i53 - 300 i54 + 1000 b220 + 1100 b221 
  + 1200 b222 + 1300 b223 + 1400 b224 + 1500 b225 <= 0
 e170: - 200 x28 - 330 i48 - 260 i49 - 480 i50 - 440 i51 - 711 i52 - 350 i53 - 300 i54 + 1000 b226 + 1100 b227 
  + 1200 b228 + 1300 b229 + 1400 b230 + 1500 b231 <= 0
 e171: - 200 x29 - 330 i55 - 260 i56 - 480 i57 - 440 i58 - 711 i59 - 350 i60 - 300 i61 + 1000 b232 + 1100 b233 
  + 1200 b234 + 1300 b235 + 1400 b236 + 1500 b237 <= 0
 e172: - 200 x29 - 330 i55 - 260 i56 - 480 i57 - 440 i58 - 711 i59 - 350 i60 - 300 i61 + 1000 b238 + 1100 b239 
  + 1200 b240 + 1300 b241 + 1400 b242 + 1500 b243 <= 0
 e173: - 200 x29 - 330 i55 - 260 i56 - 480 i57 - 440 i58 - 711 i59 - 350 i60 - 300 i61 + 1000 b244 + 1100 b245 
  + 1200 b246 + 1300 b247 + 1400 b248 + 1500 b249 <= 0
 e174: - 200 x30 - 330 i62 - 260 i63 - 480 i64 - 440 i65 - 711 i66 - 350 i67 - 300 i68 + 1000 b250 + 1100 b251 
  + 1200 b252 + 1300 b253 + 1400 b254 + 1500 b255 <= 0
 e175: - 200 x30 - 330 i62 - 260 i63 - 480 i64 - 440 i65 - 711 i66 - 350 i67 - 300 i68 + 1000 b256 + 1100 b257 
  + 1200 b258 + 1300 b259 + 1400 b260 + 1500 b261 <= 0
 e176: - 200 x30 - 330 i62 - 260 i63 - 480 i64 - 440 i65 - 711 i66 - 350 i67 - 300 i68 + 1000 b262 + 1100 b263 
  + 1200 b264 + 1300 b265 + 1400 b266 + 1500 b267 <= 0
 e177: - 200 x31 - 330 i69 - 260 i70 - 480 i71 - 440 i72 - 711 i73 - 350 i74 - 300 i75 + 1000 b268 + 1100 b269 
  + 1200 b270 + 1300 b271 + 1400 b272 + 1500 b273 <= 0
 e178: - 200 x31 - 330 i69 - 260 i70 - 480 i71 - 440 i72 - 711 i73 - 350 i74 - 300 i75 + 1000 b274 + 1100 b275 
  + 1200 b276 + 1300 b277 + 1400 b278 + 1500 b279 <= 0
 e179: - 200 x31 - 330 i69 - 260 i70 - 480 i71 - 440 i72 - 711 i73 - 350 i74 - 300 i75 + 1000 b280 + 1100 b281 
  + 1200 b282 + 1300 b283 + 1400 b284 + 1500 b285 <= 0
 e180: - 200 x32 - 330 i76 - 260 i77 - 480 i78 - 440 i79 - 711 i80 - 350 i81 - 300 i82 + 1000 b286 + 1100 b287 
  + 1200 b288 + 1300 b289 + 1400 b290 + 1500 b291 <= 0
 e181: - 200 x32 - 330 i76 - 260 i77 - 480 i78 - 440 i79 - 711 i80 - 350 i81 - 300 i82 + 1000 b292 + 1100 b293 
  + 1200 b294 + 1300 b295 + 1400 b296 + 1500 b297 <= 0
 e182: - 200 x32 - 330 i76 - 260 i77 - 480 i78 - 440 i79 - 711 i80 - 350 i81 - 300 i82 + 1000 b298 + 1100 b299 
  + 1200 b300 + 1300 b301 + 1400 b302 + 1500 b303 <= 0
 e183: - 200 x33 - 330 i83 - 260 i84 - 480 i85 - 440 i86 - 711 i87 - 350 i88 - 300 i89 + 1000 b304 + 1100 b305 
  + 1200 b306 + 1300 b307 + 1400 b308 + 1500 b309 <= 0
 e184: - 200 x33 - 330 i83 - 260 i84 - 480 i85 - 440 i86 - 711 i87 - 350 i88 - 300 i89 + 1000 b310 + 1100 b311 
  + 1200 b312 + 1300 b313 + 1400 b314 + 1500 b315 <= 0
 e185: - 200 x33 - 330 i83 - 260 i84 - 480 i85 - 440 i86 - 711 i87 - 350 i88 - 300 i89 + 1000 b316 + 1100 b317 
  + 1200 b318 + 1300 b319 + 1400 b320 + 1500 b321 <= 0
 e186: - 20 x26 - 330 i34 - 260 i35 - 480 i36 - 440 i37 - 711 i38 - 350 i39 - 300 i40 + 1000 b178 + 1100 b179 
  + 1200 b180 + 1300 b181 + 1400 b182 + 1500 b183 >= 0
 e187: - 20 x26 - 330 i34 - 260 i35 - 480 i36 - 440 i37 - 711 i38 - 350 i39 - 300 i40 + 1000 b184 + 1100 b185 
  + 1200 b186 + 1300 b187 + 1400 b188 + 1500 b189 >= 0
 e188: - 20 x26 - 330 i34 - 260 i35 - 480 i36 - 440 i37 - 711 i38 - 350 i39 - 300 i40 + 1000 b190 + 1100 b191 
  + 1200 b192 + 1300 b193 + 1400 b194 + 1500 b195 >= 0
 e189: - 20 x27 - 330 i41 - 260 i42 - 480 i43 - 440 i44 - 711 i45 - 350 i46 - 300 i47 + 1000 b196 + 1100 b197 
  + 1200 b198 + 1300 b199 + 1400 b200 + 1500 b201 >= 0
 e190: - 20 x27 - 330 i41 - 260 i42 - 480 i43 - 440 i44 - 711 i45 - 350 i46 - 300 i47 + 1000 b202 + 1100 b203 
  + 1200 b204 + 1300 b205 + 1400 b206 + 1500 b207 >= 0
 e191: - 20 x27 - 330 i41 - 260 i42 - 480 i43 - 440 i44 - 711 i45 - 350 i46 - 300 i47 + 1000 b208 + 1100 b209 
  + 1200 b210 + 1300 b211 + 1400 b212 + 1500 b213 >= 0
 e192: - 20 x28 - 330 i48 - 260 i49 - 480 i50 - 440 i51 - 711 i52 - 350 i53 - 300 i54 + 1000 b214 + 1100 b215 
  + 1200 b216 + 1300 b217 + 1400 b218 + 1500 b219 >= 0
 e193: - 20 x28 - 330 i48 - 260 i49 - 480 i50 - 440 i51 - 711 i52 - 350 i53 - 300 i54 + 1000 b220 + 1100 b221 
  + 1200 b222 + 1300 b223 + 1400 b224 + 1500 b225 >= 0
 e194: - 20 x28 - 330 i48 - 260 i49 - 480 i50 - 440 i51 - 711 i52 - 350 i53 - 300 i54 + 1000 b226 + 1100 b227 
  + 1200 b228 + 1300 b229 + 1400 b230 + 1500 b231 >= 0
 e195: - 20 x29 - 330 i55 - 260 i56 - 480 i57 - 440 i58 - 711 i59 - 350 i60 - 300 i61 + 1000 b232 + 1100 b233 
  + 1200 b234 + 1300 b235 + 1400 b236 + 1500 b237 >= 0
 e196: - 20 x29 - 330 i55 - 260 i56 - 480 i57 - 440 i58 - 711 i59 - 350 i60 - 300 i61 + 1000 b238 + 1100 b239 
  + 1200 b240 + 1300 b241 + 1400 b242 + 1500 b243 >= 0
 e197: - 20 x29 - 330 i55 - 260 i56 - 480 i57 - 440 i58 - 711 i59 - 350 i60 - 300 i61 + 1000 b244 + 1100 b245 
  + 1200 b246 + 1300 b247 + 1400 b248 + 1500 b249 >= 0
 e198: - 20 x30 - 330 i62 - 260 i63 - 480 i64 - 440 i65 - 711 i66 - 350 i67 - 300 i68 + 1000 b250 + 1100 b251 
  + 1200 b252 + 1300 b253 + 1400 b254 + 1500 b255 >= 0
 e199: - 20 x30 - 330 i62 - 260 i63 - 480 i64 - 440 i65 - 711 i66 - 350 i67 - 300 i68 + 1000 b256 + 1100 b257 
  + 1200 b258 + 1300 b259 + 1400 b260 + 1500 b261 >= 0
 e200: - 20 x30 - 330 i62 - 260 i63 - 480 i64 - 440 i65 - 711 i66 - 350 i67 - 300 i68 + 1000 b262 + 1100 b263 
  + 1200 b264 + 1300 b265 + 1400 b266 + 1500 b267 >= 0
 e201: - 20 x31 - 330 i69 - 260 i70 - 480 i71 - 440 i72 - 711 i73 - 350 i74 - 300 i75 + 1000 b268 + 1100 b269 
  + 1200 b270 + 1300 b271 + 1400 b272 + 1500 b273 >= 0
 e202: - 20 x31 - 330 i69 - 260 i70 - 480 i71 - 440 i72 - 711 i73 - 350 i74 - 300 i75 + 1000 b274 + 1100 b275 
  + 1200 b276 + 1300 b277 + 1400 b278 + 1500 b279 >= 0
 e203: - 20 x31 - 330 i69 - 260 i70 - 480 i71 - 440 i72 - 711 i73 - 350 i74 - 300 i75 + 1000 b280 + 1100 b281 
  + 1200 b282 + 1300 b283 + 1400 b284 + 1500 b285 >= 0
 e204: - 20 x32 - 330 i76 - 260 i77 - 480 i78 - 440 i79 - 711 i80 - 350 i81 - 300 i82 + 1000 b286 + 1100 b287 
  + 1200 b288 + 1300 b289 + 1400 b290 + 1500 b291 >= 0
 e205: - 20 x32 - 330 i76 - 260 i77 - 480 i78 - 440 i79 - 711 i80 - 350 i81 - 300 i82 + 1000 b292 + 1100 b293 
  + 1200 b294 + 1300 b295 + 1400 b296 + 1500 b297 >= 0
 e206: - 20 x32 - 330 i76 - 260 i77 - 480 i78 - 440 i79 - 711 i80 - 350 i81 - 300 i82 + 1000 b298 + 1100 b299 
  + 1200 b300 + 1300 b301 + 1400 b302 + 1500 b303 >= 0
 e207: - 20 x33 - 330 i83 - 260 i84 - 480 i85 - 440 i86 - 711 i87 - 350 i88 - 300 i89 + 1000 b304 + 1100 b305 
  + 1200 b306 + 1300 b307 + 1400 b308 + 1500 b309 >= 0
 e208: - 20 x33 - 330 i83 - 260 i84 - 480 i85 - 440 i86 - 711 i87 - 350 i88 - 300 i89 + 1000 b310 + 1100 b311 
  + 1200 b312 + 1300 b313 + 1400 b314 + 1500 b315 >= 0
 e209: - 20 x33 - 330 i83 - 260 i84 - 480 i85 - 440 i86 - 711 i87 - 350 i88 - 300 i89 + 1000 b316 + 1100 b317 
  + 1200 b318 + 1300 b319 + 1400 b320 + 1500 b321 >= 0
 e210: - b122 - b123 - b124 - b125 - b126 - b127 - b128 + b178 + b179 + b180 + b181 + b182 + b183 <= 
  0
 e211: - b122 - b123 - b124 - b125 - b126 - b127 - b128 + b184 + b185 + b186 + b187 + b188 + b189 <= 
  0
 e212: - b122 - b123 - b124 - b125 - b126 - b127 - b128 + b190 + b191 + b192 + b193 + b194 + b195 <= 
  0
 e213: - b129 - b130 - b131 - b132 - b133 - b134 - b135 + b196 + b197 + b198 + b199 + b200 + b201 <= 
  0
 e214: - b129 - b130 - b131 - b132 - b133 - b134 - b135 + b202 + b203 + b204 + b205 + b206 + b207 <= 
  0
 e215: - b129 - b130 - b131 - b132 - b133 - b134 - b135 + b208 + b209 + b210 + b211 + b212 + b213 <= 
  0
 e216: - b136 - b137 - b138 - b139 - b140 - b141 - b142 + b214 + b215 + b216 + b217 + b218 + b219 <= 
  0
 e217: - b136 - b137 - b138 - b139 - b140 - b141 - b142 + b220 + b221 + b222 + b223 + b224 + b225 <= 
  0
 e218: - b136 - b137 - b138 - b139 - b140 - b141 - b142 + b226 + b227 + b228 + b229 + b230 + b231 <= 
  0
 e219: - b143 - b144 - b145 - b146 - b147 - b148 - b149 + b232 + b233 + b234 + b235 + b236 + b237 <= 
  0
 e220: - b143 - b144 - b145 - b146 - b147 - b148 - b149 + b238 + b239 + b240 + b241 + b242 + b243 <= 
  0
 e221: - b143 - b144 - b145 - b146 - b147 - b148 - b149 + b244 + b245 + b246 + b247 + b248 + b249 <= 
  0
 e222: - b150 - b151 - b152 - b153 - b154 - b155 - b156 + b250 + b251 + b252 + b253 + b254 + b255 <= 
  0
 e223: - b150 - b151 - b152 - b153 - b154 - b155 - b156 + b256 + b257 + b258 + b259 + b260 + b261 <= 
  0
 e224: - b150 - b151 - b152 - b153 - b154 - b155 - b156 + b262 + b263 + b264 + b265 + b266 + b267 <= 
  0
 e225: - b157 - b158 - b159 - b160 - b161 - b162 - b163 + b268 + b269 + b270 + b271 + b272 + b273 <= 
  0
 e226: - b157 - b158 - b159 - b160 - b161 - b162 - b163 + b274 + b275 + b276 + b277 + b278 + b279 <= 
  0
 e227: - b157 - b158 - b159 - b160 - b161 - b162 - b163 + b280 + b281 + b282 + b283 + b284 + b285 <= 
  0
 e228: - b164 - b165 - b166 - b167 - b168 - b169 - b170 + b286 + b287 + b288 + b289 + b290 + b291 <= 
  0
 e229: - b164 - b165 - b166 - b167 - b168 - b169 - b170 + b292 + b293 + b294 + b295 + b296 + b297 <= 
  0
 e230: - b164 - b165 - b166 - b167 - b168 - b169 - b170 + b298 + b299 + b300 + b301 + b302 + b303 <= 
  0
 e231: - b171 - b172 - b173 - b174 - b175 - b176 - b177 + b304 + b305 + b306 + b307 + b308 + b309 <= 
  0
 e232: - b171 - b172 - b173 - b174 - b175 - b176 - b177 + b310 + b311 + b312 + b313 + b314 + b315 <= 
  0
 e233: - b171 - b172 - b173 - b174 - b175 - b176 - b177 + b316 + b317 + b318 + b319 + b320 + b321 <= 
  0
 e234: b178 + b179 + b180 + b181 + b182 + b183 <= 1
 e235: b184 + b185 + b186 + b187 + b188 + b189 <= 1
 e236: b190 + b191 + b192 + b193 + b194 + b195 <= 1
 e237: b196 + b197 + b198 + b199 + b200 + b201 <= 1
 e238: b202 + b203 + b204 + b205 + b206 + b207 <= 1
 e239: b208 + b209 + b210 + b211 + b212 + b213 <= 1
 e240: b214 + b215 + b216 + b217 + b218 + b219 <= 1
 e241: b220 + b221 + b222 + b223 + b224 + b225 <= 1
 e242: b226 + b227 + b228 + b229 + b230 + b231 <= 1
 e243: b232 + b233 + b234 + b235 + b236 + b237 <= 1
 e244: b238 + b239 + b240 + b241 + b242 + b243 <= 1
 e245: b244 + b245 + b246 + b247 + b248 + b249 <= 1
 e246: b250 + b251 + b252 + b253 + b254 + b255 <= 1
 e247: b256 + b257 + b258 + b259 + b260 + b261 <= 1
 e248: b262 + b263 + b264 + b265 + b266 + b267 <= 1
 e249: b268 + b269 + b270 + b271 + b272 + b273 <= 1
 e250: b274 + b275 + b276 + b277 + b278 + b279 <= 1
 e251: b280 + b281 + b282 + b283 + b284 + b285 <= 1
 e252: b286 + b287 + b288 + b289 + b290 + b291 <= 1
 e253: b292 + b293 + b294 + b295 + b296 + b297 <= 1
 e254: b298 + b299 + b300 + b301 + b302 + b303 <= 1
 e255: b304 + b305 + b306 + b307 + b308 + b309 <= 1
 e256: b310 + b311 + b312 + b313 + b314 + b315 <= 1
 e257: b316 + b317 + b318 + b319 + b320 + b321 <= 1
 e258: - x26 + b178 + b179 + b180 + b181 + b182 + b183 >= 0
 e259: - x26 + b178 + b179 + b180 + b181 + b182 + b183 >= 0
 e260: - x26 + b178 + b179 + b180 + b181 + b182 + b183 >= 0
 e261: - x26 + b178 + b179 + b180 + b181 + b182 + b183 >= 0
 e262: - x26 + b178 + b179 + b180 + b181 + b182 + b183 >= 0
 e263: - x26 + b178 + b179 + b180 + b181 + b182 + b183 >= 0
 e264: - x26 + b178 + b179 + b180 + b181 + b182 + b183 >= 0
 e265: - x26 + b184 + b185 + b186 + b187 + b188 + b189 >= 0
 e266: - x26 + b184 + b185 + b186 + b187 + b188 + b189 >= 0
 e267: - x26 + b184 + b185 + b186 + b187 + b188 + b189 >= 0
 e268: - x26 + b184 + b185 + b186 + b187 + b188 + b189 >= 0
 e269: - x26 + b184 + b185 + b186 + b187 + b188 + b189 >= 0
 e270: - x26 + b184 + b185 + b186 + b187 + b188 + b189 >= 0
 e271: - x26 + b184 + b185 + b186 + b187 + b188 + b189 >= 0
 e272: - x26 + b190 + b191 + b192 + b193 + b194 + b195 >= 0
 e273: - x26 + b190 + b191 + b192 + b193 + b194 + b195 >= 0
 e274: - x26 + b190 + b191 + b192 + b193 + b194 + b195 >= 0
 e275: - x26 + b190 + b191 + b192 + b193 + b194 + b195 >= 0
 e276: - x26 + b190 + b191 + b192 + b193 + b194 + b195 >= 0
 e277: - x26 + b190 + b191 + b192 + b193 + b194 + b195 >= 0
 e278: - x26 + b190 + b191 + b192 + b193 + b194 + b195 >= 0
 e279: - x27 + b196 + b197 + b198 + b199 + b200 + b201 >= 0
 e280: - x27 + b196 + b197 + b198 + b199 + b200 + b201 >= 0
 e281: - x27 + b196 + b197 + b198 + b199 + b200 + b201 >= 0
 e282: - x27 + b196 + b197 + b198 + b199 + b200 + b201 >= 0
 e283: - x27 + b196 + b197 + b198 + b199 + b200 + b201 >= 0
 e284: - x27 + b196 + b197 + b198 + b199 + b200 + b201 >= 0
 e285: - x27 + b196 + b197 + b198 + b199 + b200 + b201 >= 0
 e286: - x27 + b202 + b203 + b204 + b205 + b206 + b207 >= 0
 e287: - x27 + b202 + b203 + b204 + b205 + b206 + b207 >= 0
 e288: - x27 + b202 + b203 + b204 + b205 + b206 + b207 >= 0
 e289: - x27 + b202 + b203 + b204 + b205 + b206 + b207 >= 0
 e290: - x27 + b202 + b203 + b204 + b205 + b206 + b207 >= 0
 e291: - x27 + b202 + b203 + b204 + b205 + b206 + b207 >= 0
 e292: - x27 + b202 + b203 + b204 + b205 + b206 + b207 >= 0
 e293: - x27 + b208 + b209 + b210 + b211 + b212 + b213 >= 0
 e294: - x27 + b208 + b209 + b210 + b211 + b212 + b213 >= 0
 e295: - x27 + b208 + b209 + b210 + b211 + b212 + b213 >= 0
 e296: - x27 + b208 + b209 + b210 + b211 + b212 + b213 >= 0
 e297: - x27 + b208 + b209 + b210 + b211 + b212 + b213 >= 0
 e298: - x27 + b208 + b209 + b210 + b211 + b212 + b213 >= 0
 e299: - x27 + b208 + b209 + b210 + b211 + b212 + b213 >= 0
 e300: - x28 + b214 + b215 + b216 + b217 + b218 + b219 >= 0
 e301: - x28 + b214 + b215 + b216 + b217 + b218 + b219 >= 0
 e302: - x28 + b214 + b215 + b216 + b217 + b218 + b219 >= 0
 e303: - x28 + b214 + b215 + b216 + b217 + b218 + b219 >= 0
 e304: - x28 + b214 + b215 + b216 + b217 + b218 + b219 >= 0
 e305: - x28 + b214 + b215 + b216 + b217 + b218 + b219 >= 0
 e306: - x28 + b214 + b215 + b216 + b217 + b218 + b219 >= 0
 e307: - x28 + b220 + b221 + b222 + b223 + b224 + b225 >= 0
 e308: - x28 + b220 + b221 + b222 + b223 + b224 + b225 >= 0
 e309: - x28 + b220 + b221 + b222 + b223 + b224 + b225 >= 0
 e310: - x28 + b220 + b221 + b222 + b223 + b224 + b225 >= 0
 e311: - x28 + b220 + b221 + b222 + b223 + b224 + b225 >= 0
 e312: - x28 + b220 + b221 + b222 + b223 + b224 + b225 >= 0
 e313: - x28 + b220 + b221 + b222 + b223 + b224 + b225 >= 0
 e314: - x28 + b226 + b227 + b228 + b229 + b230 + b231 >= 0
 e315: - x28 + b226 + b227 + b228 + b229 + b230 + b231 >= 0
 e316: - x28 + b226 + b227 + b228 + b229 + b230 + b231 >= 0
 e317: - x28 + b226 + b227 + b228 + b229 + b230 + b231 >= 0
 e318: - x28 + b226 + b227 + b228 + b229 + b230 + b231 >= 0
 e319: - x28 + b226 + b227 + b228 + b229 + b230 + b231 >= 0
 e320: - x28 + b226 + b227 + b228 + b229 + b230 + b231 >= 0
 e321: - x29 + b232 + b233 + b234 + b235 + b236 + b237 >= 0
 e322: - x29 + b232 + b233 + b234 + b235 + b236 + b237 >= 0
 e323: - x29 + b232 + b233 + b234 + b235 + b236 + b237 >= 0
 e324: - x29 + b232 + b233 + b234 + b235 + b236 + b237 >= 0
 e325: - x29 + b232 + b233 + b234 + b235 + b236 + b237 >= 0
 e326: - x29 + b232 + b233 + b234 + b235 + b236 + b237 >= 0
 e327: - x29 + b232 + b233 + b234 + b235 + b236 + b237 >= 0
 e328: - x29 + b238 + b239 + b240 + b241 + b242 + b243 >= 0
 e329: - x29 + b238 + b239 + b240 + b241 + b242 + b243 >= 0
 e330: - x29 + b238 + b239 + b240 + b241 + b242 + b243 >= 0
 e331: - x29 + b238 + b239 + b240 + b241 + b242 + b243 >= 0
 e332: - x29 + b238 + b239 + b240 + b241 + b242 + b243 >= 0
 e333: - x29 + b238 + b239 + b240 + b241 + b242 + b243 >= 0
 e334: - x29 + b238 + b239 + b240 + b241 + b242 + b243 >= 0
 e335: - x29 + b244 + b245 + b246 + b247 + b248 + b249 >= 0
 e336: - x29 + b244 + b245 + b246 + b247 + b248 + b249 >= 0
 e337: - x29 + b244 + b245 + b246 + b247 + b248 + b249 >= 0
 e338: - x29 + b244 + b245 + b246 + b247 + b248 + b249 >= 0
 e339: - x29 + b244 + b245 + b246 + b247 + b248 + b249 >= 0
 e340: - x29 + b244 + b245 + b246 + b247 + b248 + b249 >= 0
 e341: - x29 + b244 + b245 + b246 + b247 + b248 + b249 >= 0
 e342: - x30 + b250 + b251 + b252 + b253 + b254 + b255 >= 0
 e343: - x30 + b250 + b251 + b252 + b253 + b254 + b255 >= 0
 e344: - x30 + b250 + b251 + b252 + b253 + b254 + b255 >= 0
 e345: - x30 + b250 + b251 + b252 + b253 + b254 + b255 >= 0
 e346: - x30 + b250 + b251 + b252 + b253 + b254 + b255 >= 0
 e347: - x30 + b250 + b251 + b252 + b253 + b254 + b255 >= 0
 e348: - x30 + b250 + b251 + b252 + b253 + b254 + b255 >= 0
 e349: - x30 + b256 + b257 + b258 + b259 + b260 + b261 >= 0
 e350: - x30 + b256 + b257 + b258 + b259 + b260 + b261 >= 0
 e351: - x30 + b256 + b257 + b258 + b259 + b260 + b261 >= 0
 e352: - x30 + b256 + b257 + b258 + b259 + b260 + b261 >= 0
 e353: - x30 + b256 + b257 + b258 + b259 + b260 + b261 >= 0
 e354: - x30 + b256 + b257 + b258 + b259 + b260 + b261 >= 0
 e355: - x30 + b256 + b257 + b258 + b259 + b260 + b261 >= 0
 e356: - x30 + b262 + b263 + b264 + b265 + b266 + b267 >= 0
 e357: - x30 + b262 + b263 + b264 + b265 + b266 + b267 >= 0
 e358: - x30 + b262 + b263 + b264 + b265 + b266 + b267 >= 0
 e359: - x30 + b262 + b263 + b264 + b265 + b266 + b267 >= 0
 e360: - x30 + b262 + b263 + b264 + b265 + b266 + b267 >= 0
 e361: - x30 + b262 + b263 + b264 + b265 + b266 + b267 >= 0
 e362: - x30 + b262 + b263 + b264 + b265 + b266 + b267 >= 0
 e363: - x31 + b268 + b269 + b270 + b271 + b272 + b273 >= 0
 e364: - x31 + b268 + b269 + b270 + b271 + b272 + b273 >= 0
 e365: - x31 + b268 + b269 + b270 + b271 + b272 + b273 >= 0
 e366: - x31 + b268 + b269 + b270 + b271 + b272 + b273 >= 0
 e367: - x31 + b268 + b269 + b270 + b271 + b272 + b273 >= 0
 e368: - x31 + b268 + b269 + b270 + b271 + b272 + b273 >= 0
 e369: - x31 + b268 + b269 + b270 + b271 + b272 + b273 >= 0
 e370: - x31 + b274 + b275 + b276 + b277 + b278 + b279 >= 0
 e371: - x31 + b274 + b275 + b276 + b277 + b278 + b279 >= 0
 e372: - x31 + b274 + b275 + b276 + b277 + b278 + b279 >= 0
 e373: - x31 + b274 + b275 + b276 + b277 + b278 + b279 >= 0
 e374: - x31 + b274 + b275 + b276 + b277 + b278 + b279 >= 0
 e375: - x31 + b274 + b275 + b276 + b277 + b278 + b279 >= 0
 e376: - x31 + b274 + b275 + b276 + b277 + b278 + b279 >= 0
 e377: - x31 + b280 + b281 + b282 + b283 + b284 + b285 >= 0
 e378: - x31 + b280 + b281 + b282 + b283 + b284 + b285 >= 0
 e379: - x31 + b280 + b281 + b282 + b283 + b284 + b285 >= 0
 e380: - x31 + b280 + b281 + b282 + b283 + b284 + b285 >= 0
 e381: - x31 + b280 + b281 + b282 + b283 + b284 + b285 >= 0
 e382: - x31 + b280 + b281 + b282 + b283 + b284 + b285 >= 0
 e383: - x31 + b280 + b281 + b282 + b283 + b284 + b285 >= 0
 e384: - x32 + b286 + b287 + b288 + b289 + b290 + b291 >= 0
 e385: - x32 + b286 + b287 + b288 + b289 + b290 + b291 >= 0
 e386: - x32 + b286 + b287 + b288 + b289 + b290 + b291 >= 0
 e387: - x32 + b286 + b287 + b288 + b289 + b290 + b291 >= 0
 e388: - x32 + b286 + b287 + b288 + b289 + b290 + b291 >= 0
 e389: - x32 + b286 + b287 + b288 + b289 + b290 + b291 >= 0
 e390: - x32 + b286 + b287 + b288 + b289 + b290 + b291 >= 0
 e391: - x32 + b292 + b293 + b294 + b295 + b296 + b297 >= 0
 e392: - x32 + b292 + b293 + b294 + b295 + b296 + b297 >= 0
 e393: - x32 + b292 + b293 + b294 + b295 + b296 + b297 >= 0
 e394: - x32 + b292 + b293 + b294 + b295 + b296 + b297 >= 0
 e395: - x32 + b292 + b293 + b294 + b295 + b296 + b297 >= 0
 e396: - x32 + b292 + b293 + b294 + b295 + b296 + b297 >= 0
 e397: - x32 + b292 + b293 + b294 + b295 + b296 + b297 >= 0
 e398: - x32 + b298 + b299 + b300 + b301 + b302 + b303 >= 0
 e399: - x32 + b298 + b299 + b300 + b301 + b302 + b303 >= 0
 e400: - x32 + b298 + b299 + b300 + b301 + b302 + b303 >= 0
 e401: - x32 + b298 + b299 + b300 + b301 + b302 + b303 >= 0
 e402: - x32 + b298 + b299 + b300 + b301 + b302 + b303 >= 0
 e403: - x32 + b298 + b299 + b300 + b301 + b302 + b303 >= 0
 e404: - x32 + b298 + b299 + b300 + b301 + b302 + b303 >= 0
 e405: - x33 + b304 + b305 + b306 + b307 + b308 + b309 >= 0
 e406: - x33 + b304 + b305 + b306 + b307 + b308 + b309 >= 0
 e407: - x33 + b304 + b305 + b306 + b307 + b308 + b309 >= 0
 e408: - x33 + b304 + b305 + b306 + b307 + b308 + b309 >= 0
 e409: - x33 + b304 + b305 + b306 + b307 + b308 + b309 >= 0
 e410: - x33 + b304 + b305 + b306 + b307 + b308 + b309 >= 0
 e411: - x33 + b304 + b305 + b306 + b307 + b308 + b309 >= 0
 e412: - x33 + b310 + b311 + b312 + b313 + b314 + b315 >= 0
 e413: - x33 + b310 + b311 + b312 + b313 + b314 + b315 >= 0
 e414: - x33 + b310 + b311 + b312 + b313 + b314 + b315 >= 0
 e415: - x33 + b310 + b311 + b312 + b313 + b314 + b315 >= 0
 e416: - x33 + b310 + b311 + b312 + b313 + b314 + b315 >= 0
 e417: - x33 + b310 + b311 + b312 + b313 + b314 + b315 >= 0
 e418: - x33 + b310 + b311 + b312 + b313 + b314 + b315 >= 0
 e419: - x33 + b316 + b317 + b318 + b319 + b320 + b321 >= 0
 e420: - x33 + b316 + b317 + b318 + b319 + b320 + b321 >= 0
 e421: - x33 + b316 + b317 + b318 + b319 + b320 + b321 >= 0
 e422: - x33 + b316 + b317 + b318 + b319 + b320 + b321 >= 0
 e423: - x33 + b316 + b317 + b318 + b319 + b320 + b321 >= 0
 e424: - x33 + b316 + b317 + b318 + b319 + b320 + b321 >= 0
 e425: - x33 + b316 + b317 + b318 + b319 + b320 + b321 >= 0
 e426: - 500 x26 + x322 >= 0
 e427: - 500 x27 + x323 >= 0
 e428: - 500 x28 + x324 >= 0
 e429: - 500 x29 + x325 >= 0
 e430: - 500 x30 + x326 >= 0
 e431: - 500 x31 + x327 >= 0
 e432: - 500 x32 + x328 >= 0
 e433: - 500 x33 + x329 >= 0
 e434: - 2000 x26 + x322 <= 0
 e435: - 2000 x27 + x323 <= 0
 e436: - 2000 x28 + x324 <= 0
 e437: - 2000 x29 + x325 <= 0
 e438: - 2000 x30 + x326 <= 0
 e439: - 2000 x31 + x327 <= 0
 e440: - 2000 x32 + x328 <= 0
 e441: - 2000 x33 + x329 <= 0
 e442: - x26 + b122 + b123 + b124 + b125 + b126 + b127 + b128 >= 0
 e443: - x27 + b129 + b130 + b131 + b132 + b133 + b134 + b135 >= 0
 e444: - x28 + b136 + b137 + b138 + b139 + b140 + b141 + b142 >= 0
 e445: - x29 + b143 + b144 + b145 + b146 + b147 + b148 + b149 >= 0
 e446: - x30 + b150 + b151 + b152 + b153 + b154 + b155 + b156 >= 0
 e447: - x31 + b157 + b158 + b159 + b160 + b161 + b162 + b163 >= 0
 e448: - x32 + b164 + b165 + b166 + b167 + b168 + b169 + b170 >= 0
 e449: - x33 + b171 + b172 + b173 + b174 + b175 + b176 + b177 >= 0
 e450: x26 - b122 >= 0
 e451: x27 - b129 >= 0
 e452: x28 - b136 >= 0
 e453: x29 - b143 >= 0
 e454: x30 - b150 >= 0
 e455: x31 - b157 >= 0
 e456: x32 - b164 >= 0
 e457: x33 - b171 >= 0
 e458: x26 - b123 >= 0
 e459: x27 - b130 >= 0
 e460: x28 - b137 >= 0
 e461: x29 - b144 >= 0
 e462: x30 - b151 >= 0
 e463: x31 - b158 >= 0
 e464: x32 - b165 >= 0
 e465: x33 - b172 >= 0
 e466: x26 - b124 >= 0
 e467: x27 - b131 >= 0
 e468: x28 - b138 >= 0
 e469: x29 - b145 >= 0
 e470: x30 - b152 >= 0
 e471: x31 - b159 >= 0
 e472: x32 - b166 >= 0
 e473: x33 - b173 >= 0
 e474: x26 - b125 >= 0
 e475: x27 - b132 >= 0
 e476: x28 - b139 >= 0
 e477: x29 - b146 >= 0
 e478: x30 - b153 >= 0
 e479: x31 - b160 >= 0
 e480: x32 - b167 >= 0
 e481: x33 - b174 >= 0
 e482: x26 - b126 >= 0
 e483: x27 - b133 >= 0
 e484: x28 - b140 >= 0
 e485: x29 - b147 >= 0
 e486: x30 - b154 >= 0
 e487: x31 - b161 >= 0
 e488: x32 - b168 >= 0
 e489: x33 - b175 >= 0
 e490: x26 - b127 >= 0
 e491: x27 - b134 >= 0
 e492: x28 - b141 >= 0
 e493: x29 - b148 >= 0
 e494: x30 - b155 >= 0
 e495: x31 - b162 >= 0
 e496: x32 - b169 >= 0
 e497: x33 - b176 >= 0
 e498: x26 - b128 >= 0
 e499: x27 - b135 >= 0
 e500: x28 - b142 >= 0
 e501: x29 - b149 >= 0
 e502: x30 - b156 >= 0
 e503: x31 - b163 >= 0
 e504: x32 - b170 >= 0
 e505: x33 - b177 >= 0
 e506: b122 + b129 + b136 + b143 + b150 + b157 + b164 + b171 >= 1
 e507: b123 + b130 + b137 + b144 + b151 + b158 + b165 + b172 >= 1
 e508: b124 + b131 + b138 + b145 + b152 + b159 + b166 + b173 >= 1
 e509: b125 + b132 + b139 + b146 + b153 + b160 + b167 + b174 >= 1
 e510: b126 + b133 + b140 + b147 + b154 + b161 + b168 + b175 >= 1
 e511: b127 + b134 + b141 + b148 + b155 + b162 + b169 + b176 >= 1
 e512: b128 + b135 + b142 + b149 + b156 + b163 + b170 + b177 >= 1
 e513: - i34 + b122 <= 0
 e514: - i41 + b129 <= 0
 e515: - i48 + b136 <= 0
 e516: - i55 + b143 <= 0
 e517: - i62 + b150 <= 0
 e518: - i69 + b157 <= 0
 e519: - i76 + b164 <= 0
 e520: - i83 + b171 <= 0
 e521: - i35 + b123 <= 0
 e522: - i42 + b130 <= 0
 e523: - i49 + b137 <= 0
 e524: - i56 + b144 <= 0
 e525: - i63 + b151 <= 0
 e526: - i70 + b158 <= 0
 e527: - i77 + b165 <= 0
 e528: - i84 + b172 <= 0
 e529: - i36 + b124 <= 0
 e530: - i43 + b131 <= 0
 e531: - i50 + b138 <= 0
 e532: - i57 + b145 <= 0
 e533: - i64 + b152 <= 0
 e534: - i71 + b159 <= 0
 e535: - i78 + b166 <= 0
 e536: - i85 + b173 <= 0
 e537: - i37 + b125 <= 0
 e538: - i44 + b132 <= 0
 e539: - i51 + b139 <= 0
 e540: - i58 + b146 <= 0
 e541: - i65 + b153 <= 0
 e542: - i72 + b160 <= 0
 e543: - i79 + b167 <= 0
 e544: - i86 + b174 <= 0
 e545: - i38 + b126 <= 0
 e546: - i45 + b133 <= 0
 e547: - i52 + b140 <= 0
 e548: - i59 + b147 <= 0
 e549: - i66 + b154 <= 0
 e550: - i73 + b161 <= 0
 e551: - i80 + b168 <= 0
 e552: - i87 + b175 <= 0
 e553: - i39 + b127 <= 0
 e554: - i46 + b134 <= 0
 e555: - i53 + b141 <= 0
 e556: - i60 + b148 <= 0
 e557: - i67 + b155 <= 0
 e558: - i74 + b162 <= 0
 e559: - i81 + b169 <= 0
 e560: - i88 + b176 <= 0
 e561: - i40 + b128 <= 0
 e562: - i47 + b135 <= 0
 e563: - i54 + b142 <= 0
 e564: - i61 + b149 <= 0
 e565: - i68 + b156 <= 0
 e566: - i75 + b163 <= 0
 e567: - i82 + b170 <= 0
 e568: - i89 + b177 <= 0
 e569: i34 - 4 b122 <= 0
 e570: i41 - 4 b129 <= 0
 e571: i48 - 4 b136 <= 0
 e572: i55 - 4 b143 <= 0
 e573: i62 - 4 b150 <= 0
 e574: i69 - 4 b157 <= 0
 e575: i76 - 4 b164 <= 0
 e576: i83 - 4 b171 <= 0
 e577: i35 - 4 b123 <= 0
 e578: i42 - 4 b130 <= 0
 e579: i49 - 4 b137 <= 0
 e580: i56 - 4 b144 <= 0
 e581: i63 - 4 b151 <= 0
 e582: i70 - 4 b158 <= 0
 e583: i77 - 4 b165 <= 0
 e584: i84 - 4 b172 <= 0
 e585: i36 - 4 b124 <= 0
 e586: i43 - 4 b131 <= 0
 e587: i50 - 4 b138 <= 0
 e588: i57 - 4 b145 <= 0
 e589: i64 - 4 b152 <= 0
 e590: i71 - 4 b159 <= 0
 e591: i78 - 4 b166 <= 0
 e592: i85 - 4 b173 <= 0
 e593: i37 - 4 b125 <= 0
 e594: i44 - 4 b132 <= 0
 e595: i51 - 4 b139 <= 0
 e596: i58 - 4 b146 <= 0
 e597: i65 - 4 b153 <= 0
 e598: i72 - 4 b160 <= 0
 e599: i79 - 4 b167 <= 0
 e600: i86 - 4 b174 <= 0
 e601: i38 - 4 b126 <= 0
 e602: i45 - 4 b133 <= 0
 e603: i52 - 4 b140 <= 0
 e604: i59 - 4 b147 <= 0
 e605: i66 - 4 b154 <= 0
 e606: i73 - 4 b161 <= 0
 e607: i80 - 4 b168 <= 0
 e608: i87 - 4 b175 <= 0
 e609: i39 - 4 b127 <= 0
 e610: i46 - 4 b134 <= 0
 e611: i53 - 4 b141 <= 0
 e612: i60 - 4 b148 <= 0
 e613: i67 - 4 b155 <= 0
 e614: i74 - 4 b162 <= 0
 e615: i81 - 4 b169 <= 0
 e616: i88 - 4 b176 <= 0
 e617: i40 - 4 b128 <= 0
 e618: i47 - 4 b135 <= 0
 e619: i54 - 4 b142 <= 0
 e620: i61 - 4 b149 <= 0
 e621: i68 - 4 b156 <= 0
 e622: i75 - 4 b163 <= 0
 e623: i82 - 4 b170 <= 0
 e624: i89 - 4 b177 <= 0
 e625: - x90 + [ b178 * x322 + 1.1 b179 * x322 + 1.2 b180 * x322 + 1.3 b181 * x322 + 1.4 b182 * x322 
  + 1.5 b183 * x322 ] = 0
 e626: - x92 + [ b184 * x322 + 1.1 b185 * x322 + 1.2 b186 * x322 + 1.3 b187 * x322 + 1.4 b188 * x322 
  + 1.5 b189 * x322 ] = 0
 e627: - x93 + [ b190 * x322 + 1.1 b191 * x322 + 1.2 b192 * x322 + 1.3 b193 * x322 + 1.4 b194 * x322 
  + 1.5 b195 * x322 ] = 0
 e628: - x94 + [ b196 * x323 + 1.1 b197 * x323 + 1.2 b198 * x323 + 1.3 b199 * x323 + 1.4 b200 * x323 
  + 1.5 b201 * x323 ] = 0
 e629: - x96 + [ b202 * x323 + 1.1 b203 * x323 + 1.2 b204 * x323 + 1.3 b205 * x323 + 1.4 b206 * x323 
  + 1.5 b207 * x323 ] = 0
 e630: - x97 + [ b208 * x323 + 1.1 b209 * x323 + 1.2 b210 * x323 + 1.3 b211 * x323 + 1.4 b212 * x323 
  + 1.5 b213 * x323 ] = 0
 e631: - x98 + [ b214 * x324 + 1.1 b215 * x324 + 1.2 b216 * x324 + 1.3 b217 * x324 + 1.4 b218 * x324 
  + 1.5 b219 * x324 ] = 0
 e632: - x100 + [ b220 * x324 + 1.1 b221 * x324 + 1.2 b222 * x324 + 1.3 b223 * x324 + 1.4 b224 * x324 
  + 1.5 b225 * x324 ] = 0
 e633: - x101 + [ b226 * x324 + 1.1 b227 * x324 + 1.2 b228 * x324 + 1.3 b229 * x324 + 1.4 b230 * x324 
  + 1.5 b231 * x324 ] = 0
 e634: - x102 + [ b232 * x325 + 1.1 b233 * x325 + 1.2 b234 * x325 + 1.3 b235 * x325 + 1.4 b236 * x325 
  + 1.5 b237 * x325 ] = 0
 e635: - x104 + [ b238 * x325 + 1.1 b239 * x325 + 1.2 b240 * x325 + 1.3 b241 * x325 + 1.4 b242 * x325 
  + 1.5 b243 * x325 ] = 0
 e636: - x105 + [ b244 * x325 + 1.1 b245 * x325 + 1.2 b246 * x325 + 1.3 b247 * x325 + 1.4 b248 * x325 
  + 1.5 b249 * x325 ] = 0
 e637: - x106 + [ b250 * x326 + 1.1 b251 * x326 + 1.2 b252 * x326 + 1.3 b253 * x326 + 1.4 b254 * x326 
  + 1.5 b255 * x326 ] = 0
 e638: - x108 + [ b256 * x326 + 1.1 b257 * x326 + 1.2 b258 * x326 + 1.3 b259 * x326 + 1.4 b260 * x326 
  + 1.5 b261 * x326 ] = 0
 e639: - x109 + [ b262 * x326 + 1.1 b263 * x326 + 1.2 b264 * x326 + 1.3 b265 * x326 + 1.4 b266 * x326 
  + 1.5 b267 * x326 ] = 0
 e640: - x110 + [ b268 * x327 + 1.1 b269 * x327 + 1.2 b270 * x327 + 1.3 b271 * x327 + 1.4 b272 * x327 
  + 1.5 b273 * x327 ] = 0
 e641: - x112 + [ b274 * x327 + 1.1 b275 * x327 + 1.2 b276 * x327 + 1.3 b277 * x327 + 1.4 b278 * x327 
  + 1.5 b279 * x327 ] = 0
 e642: - x113 + [ b280 * x327 + 1.1 b281 * x327 + 1.2 b282 * x327 + 1.3 b283 * x327 + 1.4 b284 * x327 
  + 1.5 b285 * x327 ] = 0
 e643: - x114 + [ b286 * x328 + 1.1 b287 * x328 + 1.2 b288 * x328 + 1.3 b289 * x328 + 1.4 b290 * x328 
  + 1.5 b291 * x328 ] = 0
 e644: - x116 + [ b292 * x328 + 1.1 b293 * x328 + 1.2 b294 * x328 + 1.3 b295 * x328 + 1.4 b296 * x328 
  + 1.5 b297 * x328 ] = 0
 e645: - x117 + [ b298 * x328 + 1.1 b299 * x328 + 1.2 b300 * x328 + 1.3 b301 * x328 + 1.4 b302 * x328 
  + 1.5 b303 * x328 ] = 0
 e646: - x118 + [ b304 * x329 + 1.1 b305 * x329 + 1.2 b306 * x329 + 1.3 b307 * x329 + 1.4 b308 * x329 
  + 1.5 b309 * x329 ] = 0
 e647: - x120 + [ b310 * x329 + 1.1 b311 * x329 + 1.2 b312 * x329 + 1.3 b313 * x329 + 1.4 b314 * x329 
  + 1.5 b315 * x329 ] = 0
 e648: - x121 + [ b316 * x329 + 1.1 b317 * x329 + 1.2 b318 * x329 + 1.3 b319 * x329 + 1.4 b320 * x329 
  + 1.5 b321 * x329 ] = 0
 e649: - x91 + [ 0.33 i34 * x322 + 0.26 i35 * x322 + 0.48 i36 * x322 + 0.44 i37 * x322 + 0.711 i38 * x322 
  + 0.35 i39 * x322 + 0.3 i40 * x322 ] = 0
 e650: - x95 + [ 0.33 i41 * x323 + 0.26 i42 * x323 + 0.48 i43 * x323 + 0.44 i44 * x323 + 0.711 i45 * x323 
  + 0.35 i46 * x323 + 0.3 i47 * x323 ] = 0
 e651: - x99 + [ 0.33 i48 * x324 + 0.26 i49 * x324 + 0.48 i50 * x324 + 0.44 i51 * x324 + 0.711 i52 * x324 
  + 0.35 i53 * x324 + 0.3 i54 * x324 ] = 0
 e652: - x103 + [ 0.33 i55 * x325 + 0.26 i56 * x325 + 0.48 i57 * x325 + 0.44 i58 * x325 + 0.711 i59 * x325 
  + 0.35 i60 * x325 + 0.3 i61 * x325 ] = 0
 e653: - x107 + [ 0.33 i62 * x326 + 0.26 i63 * x326 + 0.48 i64 * x326 + 0.44 i65 * x326 + 0.711 i66 * x326 
  + 0.35 i67 * x326 + 0.3 i68 * x326 ] = 0
 e654: - x111 + [ 0.33 i69 * x327 + 0.26 i70 * x327 + 0.48 i71 * x327 + 0.44 i72 * x327 + 0.711 i73 * x327 
  + 0.35 i74 * x327 + 0.3 i75 * x327 ] = 0
 e655: - x115 + [ 0.33 i76 * x328 + 0.26 i77 * x328 + 0.48 i78 * x328 + 0.44 i79 * x328 + 0.711 i80 * x328 
  + 0.35 i81 * x328 + 0.3 i82 * x328 ] = 0
 e656: - x119 + [ 0.33 i83 * x329 + 0.26 i84 * x329 + 0.48 i85 * x329 + 0.44 i86 * x329 + 0.711 i87 * x329 
  + 0.35 i88 * x329 + 0.3 i89 * x329 ] = 0
 e657: [ b178 * x322 + 1.5 b184 * x322 + b190 * x322 + b196 * x323 + 1.5 b202 * x323 + b208 * x323 + b214 * x324 
  + 1.5 b220 * x324 + b226 * x324 + 1.5 b274 * x327 + 1.5 b292 * x328 + 1.5 b310 * x329 ] <= 999999
 e658: [ b179 * x322 + 1.5 b185 * x322 + b191 * x322 + b197 * x323 + 1.5 b203 * x323 + b209 * x323 + b215 * x324 
  + 1.5 b221 * x324 + b227 * x324 + 1.5 b275 * x327 + 1.5 b293 * x328 + 1.5 b311 * x329 ] <= 999999
 e659: [ b180 * x322 + 1.5 b186 * x322 + b192 * x322 + b198 * x323 + 1.5 b204 * x323 + b210 * x323 + b216 * x324 
  + 1.5 b222 * x324 + b228 * x324 + 1.5 b276 * x327 + 1.5 b294 * x328 + 1.5 b312 * x329 ] <= 999999
 e660: [ b181 * x322 + 1.5 b187 * x322 + b193 * x322 + b199 * x323 + 1.5 b205 * x323 + b211 * x323 + b217 * x324 
  + 1.5 b223 * x324 + b229 * x324 + 1.5 b277 * x327 + 1.5 b295 * x328 + 1.5 b313 * x329 ] <= 888888
 e661: [ b182 * x322 + 1.5 b188 * x322 + b194 * x322 + b200 * x323 + 1.5 b206 * x323 + b212 * x323 + b218 * x324 
  + 1.5 b224 * x324 + b230 * x324 + 1.5 b278 * x327 + 1.5 b296 * x328 + 1.5 b314 * x329 ] <= 9999999
 e662: [ b183 * x322 + 1.5 b189 * x322 + b195 * x322 + b201 * x323 + 1.5 b207 * x323 + b213 * x323 + b219 * x324 
  + 1.5 b225 * x324 + b231 * x324 + 1.5 b279 * x327 + 1.5 b297 * x328 + 1.5 b315 * x329 ] <= 999999
 e663: [ 1.5 b238 * x325 + b244 * x325 + 1.5 b256 * x326 + b262 * x326 + b268 * x327 + b280 * x327 + b286 * x328 
  + b298 * x328 + b304 * x329 + b316 * x329 ] <= 72722
 e664: [ 1.5 b239 * x325 + b245 * x325 + 1.5 b257 * x326 + b263 * x326 + b269 * x327 + b281 * x327 + b287 * x328 
  + b299 * x328 + b305 * x329 + b317 * x329 ] <= 32737
 e665: [ 1.5 b240 * x325 + b246 * x325 + 1.5 b258 * x326 + b264 * x326 + b270 * x327 + b282 * x327 + b288 * x328 
  + b300 * x328 + b306 * x329 + b318 * x329 ] <= 999999
 e666: [ 1.5 b241 * x325 + b247 * x325 + 1.5 b259 * x326 + b265 * x326 + b271 * x327 + b283 * x327 + b289 * x328 
  + b301 * x328 + b307 * x329 + b319 * x329 ] <= 999999
 e667: [ 1.5 b242 * x325 + b248 * x325 + 1.5 b260 * x326 + b266 * x326 + b272 * x327 + b284 * x327 + b290 * x328 
  + b302 * x328 + b308 * x329 + b320 * x329 ] <= 122344
 e668: [ 1.5 b243 * x325 + b249 * x325 + 1.5 b261 * x326 + b267 * x326 + b273 * x327 + b285 * x327 + b291 * x328 
  + b303 * x328 + b309 * x329 + b321 * x329 ] <= 147559
 e669: [ b232 * x325 + b250 * x326 ] <= 999999
 e670: [ b233 * x325 + b251 * x326 ] <= 999999
 e671: [ b234 * x325 + b252 * x326 ] <= 999999
 e672: [ b235 * x325 + b253 * x326 ] <= 999999
 e673: [ b236 * x325 + b254 * x326 ] <= 999999
 e674: [ b237 * x325 + b255 * x326 ] <= 999999
 e675: [ 0.5277044855 i34 * x322 + 0.5277044855 i41 * x323 + 0.5277044855 i48 * x324 + 0.5277044855 i55 * x325 
  + 0.5277044855 i62 * x326 + 0.5277044855 i69 * x327 + 0.5277044855 i76 * x328 + 0.5277044855 i83 * x329 
  ] >= 1000
 e676: [ 1.333333333 i35 * x322 + 1.333333333 i42 * x323 + 1.333333333 i49 * x324 + 1.333333333 i56 * x325 
  + 1.333333333 i63 * x326 + 1.333333333 i70 * x327 + 1.333333333 i77 * x328 + 1.333333333 i84 * x329 
  ] >= 1500
 e677: [ 0.8583690987 i36 * x322 + 0.8583690987 i43 * x323 + 0.8583690987 i50 * x324 + 0.8583690987 i57 * x325 
  + 0.8583690987 i64 * x326 + 0.8583690987 i71 * x327 + 0.8583690987 i78 * x328 + 0.8583690987 i85 * x329 
  ] >= 2000
 e678: [ 1.324503311 i37 * x322 + 1.324503311 i44 * x323 + 1.324503311 i51 * x324 + 1.324503311 i58 * x325 
  + 1.324503311 i65 * x326 + 1.324503311 i72 * x327 + 1.324503311 i79 * x328 + 1.324503311 i86 * x329 
  ] >= 2000
 e679: [ 0.5012531328 i38 * x322 + 0.5012531328 i45 * x323 + 0.5012531328 i52 * x324 + 0.5012531328 i59 * x325 
  + 0.5012531328 i66 * x326 + 0.5012531328 i73 * x327 + 0.5012531328 i80 * x328 + 0.5012531328 i87 * x329 
  ] >= 1500
 e680: [ 0.5555555556 i39 * x322 + 0.5555555556 i46 * x323 + 0.5555555556 i53 * x324 + 0.5555555556 i60 * x325 
  + 0.5555555556 i67 * x326 + 0.5555555556 i74 * x327 + 0.5555555556 i81 * x328 + 0.5555555556 i88 * x329 
  ] >= 1500
 e681: [ 1.176470588 i40 * x322 + 1.176470588 i47 * x323 + 1.176470588 i54 * x324 + 1.176470588 i61 * x325 
  + 1.176470588 i68 * x326 + 1.176470588 i75 * x327 + 1.176470588 i82 * x328 + 1.176470588 i89 * x329 
  ] >= 2500
 e682: [ 0.5277044855 i34 * x322 + 0.5277044855 i41 * x323 + 0.5277044855 i48 * x324 + 0.5277044855 i55 * x325 
  + 0.5277044855 i62 * x326 + 0.5277044855 i69 * x327 + 0.5277044855 i76 * x328 + 0.5277044855 i83 * x329 
  ] <= 1500
 e683: [ 1.333333333 i35 * x322 + 1.333333333 i42 * x323 + 1.333333333 i49 * x324 + 1.333333333 i56 * x325 
  + 1.333333333 i63 * x326 + 1.333333333 i70 * x327 + 1.333333333 i77 * x328 + 1.333333333 i84 * x329 
  ] <= 2250
 e684: [ 0.8583690987 i36 * x322 + 0.8583690987 i43 * x323 + 0.8583690987 i50 * x324 + 0.8583690987 i57 * x325 
  + 0.8583690987 i64 * x326 + 0.8583690987 i71 * x327 + 0.8583690987 i78 * x328 + 0.8583690987 i85 * x329 
  ] <= 3000
 e685: [ 1.324503311 i37 * x322 + 1.324503311 i44 * x323 + 1.324503311 i51 * x324 + 1.324503311 i58 * x325 
  + 1.324503311 i65 * x326 + 1.324503311 i72 * x327 + 1.324503311 i79 * x328 + 1.324503311 i86 * x329 
  ] <= 3000
 e686: [ 0.5012531328 i38 * x322 + 0.5012531328 i45 * x323 + 0.5012531328 i52 * x324 + 0.5012531328 i59 * x325 
  + 0.5012531328 i66 * x326 + 0.5012531328 i73 * x327 + 0.5012531328 i80 * x328 + 0.5012531328 i87 * x329 
  ] <= 2250
 e687: [ 0.5555555556 i39 * x322 + 0.5555555556 i46 * x323 + 0.5555555556 i53 * x324 + 0.5555555556 i60 * x325 
  + 0.5555555556 i67 * x326 + 0.5555555556 i74 * x327 + 0.5555555556 i81 * x328 + 0.5555555556 i88 * x329 
  ] <= 2250
 e688: [ 1.176470588 i40 * x322 + 1.176470588 i47 * x323 + 1.176470588 i54 * x324 + 1.176470588 i61 * x325 
  + 1.176470588 i68 * x326 + 1.176470588 i75 * x327 + 1.176470588 i82 * x328 + 1.176470588 i89 * x329 
  ] <= 3750

Bounds
 x26 <= 1
 x27 <= 1
 x28 <= 1
 x29 <= 1
 x30 <= 1
 x31 <= 1
 x32 <= 1
 x33 <= 1
 i34 <= 4
 i35 <= 4
 i36 <= 4
 i37 <= 4
 i38 <= 4
 i39 <= 4
 i40 <= 4
 i41 <= 4
 i42 <= 4
 i43 <= 4
 i44 <= 4
 i45 <= 4
 i46 <= 4
 i47 <= 4
 i48 <= 4
 i49 <= 4
 i50 <= 4
 i51 <= 4
 i52 <= 4
 i53 <= 4
 i54 <= 4
 i55 <= 4
 i56 <= 4
 i57 <= 4
 i58 <= 4
 i59 <= 4
 i60 <= 4
 i61 <= 4
 i62 <= 4
 i63 <= 4
 i64 <= 4
 i65 <= 4
 i66 <= 4
 i67 <= 4
 i68 <= 4
 i69 <= 4
 i70 <= 4
 i71 <= 4
 i72 <= 4
 i73 <= 4
 i74 <= 4
 i75 <= 4
 i76 <= 4
 i77 <= 4
 i78 <= 4
 i79 <= 4
 i80 <= 4
 i81 <= 4
 i82 <= 4
 i83 <= 4
 i84 <= 4
 i85 <= 4
 i86 <= 4
 i87 <= 4
 i88 <= 4
 i89 <= 4

Binary
 b122 b123 b124 b125 b126 b127 b128 b129 b130 b131 b132 b133 b134 b135 b136 b137 b138 b139 b140
 b141 b142 b143 b144 b145 b146 b147 b148 b149 b150 b151 b152 b153 b154 b155 b156 b157 b158 b159
 b160 b161 b162 b163 b164 b165 b166 b167 b168 b169 b170 b171 b172 b173 b174 b175 b176 b177 b178
 b179 b180 b181 b182 b183 b184 b185 b186 b187 b188 b189 b190 b191 b192 b193 b194 b195 b196 b197
 b198 b199 b200 b201 b202 b203 b204 b205 b206 b207 b208 b209 b210 b211 b212 b213 b214 b215 b216
 b217 b218 b219 b220 b221 b222 b223 b224 b225 b226 b227 b228 b229 b230 b231 b232 b233 b234 b235
 b236 b237 b238 b239 b240 b241 b242 b243 b244 b245 b246 b247 b248 b249 b250 b251 b252 b253 b254
 b255 b256 b257 b258 b259 b260 b261 b262 b263 b264 b265 b266 b267 b268 b269 b270 b271 b272 b273
 b274 b275 b276 b277 b278 b279 b280 b281 b282 b283 b284 b285 b286 b287 b288 b289 b290 b291 b292
 b293 b294 b295 b296 b297 b298 b299 b300 b301 b302 b303 b304 b305 b306 b307 b308 b309 b310 b311
 b312 b313 b314 b315 b316 b317 b318 b319 b320 b321

General
 i34 i35 i36 i37 i38 i39 i40 i41 i42 i43 i44 i45 i46 i47 i48 i49 i50 i51 i52 i53 i54 i55 i56
 i57 i58 i59 i60 i61 i62 i63 i64 i65 i66 i67 i68 i69 i70 i71 i72 i73 i74 i75 i76 i77 i78 i79
 i80 i81 i82 i83 i84 i85 i86 i87 i88 i89

End
