\ Equation counts
\     Total        E        G        L        N        X        C        B
\       330      220        0      110        0        0        0        0
\ 
\ Variable counts
\                  x        b        i      s1s      s2s       sc       si
\     Total     cont   binary  integer     sos1     sos2    scont     sint
\       335      225      110        0        0        0        0        0
\ 
\ Nonzero counts
\     Total    const       NL      DLL
\      1202      982      220        0
\ 
Minimize
 obj: b2 + b3 + b4 + b5 + b6 + b7 + b8 + b9 + b10 + b11 + b12 + b13 + b14 + b15 + b16 + b17 + b18 + b19 
  + b20 + b21 + b22 + b23 + b24 + b25 + b26 + b27 + b28 + b29 + b30 + b31 + b32 + b33 + b34 + b35 + b36 
  + b37 + b38 + b39 + b40 + b41 + b42 + b43 + b44 + b45 + b46 + b47 + b48 + b49 + b50 + b51 + b52 + b53 
  + b54 + b55 + b56 + b57 + b58 + b59 + b60 + b61 + b62 + b63 + b64 + b65 + b66 + b67 + b68 + b69 + b70 
  + b71 + b72 + b73 + b74 + b75 + b76 + b77 + b78 + b79 + b80 + b81 + b82 + b83 + b84 + b85 + b86 + b87 
  + b88 + b89 + b90 + b91 + b92 + b93 + b94 + b95 + b96 + b97 + b98 + b99 + b100 + b101 + b102 + b103 
  + b104 + b105 + b106 + b107 + b108 + b109 + b110 + b111 + 0 x112 + 0 x113 + 0 x114 + 0 x115 + 0 x116 
  + 0 x117 + 0 x118 + 0 x119 + 0 x120 + 0 x121 + 0 x122 + 0 x123 + 0 x124 + 0 x125 + 0 x126 + 0 x127 
  + 0 x128 + 0 x129 + 0 x130 + 0 x131 + 0 x132 + 0 x133 + 0 x134 + 0 x135 + 0 x136 + 0 x137 + 0 x138 
  + 0 x139 + 0 x140 + 0 x141 + 0 x142 + 0 x143 + 0 x144 + 0 x145 + 0 x146 + 0 x147 + 0 x148 + 0 x149 
  + 0 x150 + 0 x151 + 0 x152 + 0 x153 + 0 x154 + 0 x155 + 0 x156 + 0 x157 + 0 x158 + 0 x159 + 0 x160 
  + 0 x161 + 0 x162 + 0 x163 + 0 x164 + 0 x165 + 0 x166 + 0 x167 + 0 x168 + 0 x169 + 0 x170 + 0 x171 
  + 0 x172 + 0 x173 + 0 x174 + 0 x175 + 0 x176 + 0 x177 + 0 x178 + 0 x179 + 0 x180 + 0 x181 + 0 x182 
  + 0 x183 + 0 x184 + 0 x185 + 0 x186 + 0 x187 + 0 x188 + 0 x189 + 0 x190 + 0 x191 + 0 x192 + 0 x193 
  + 0 x194 + 0 x195 + 0 x196 + 0 x197 + 0 x198 + 0 x199 + 0 x200 + 0 x201 + 0 x202 + 0 x203 + 0 x204 
  + 0 x205 + 0 x206 + 0 x207 + 0 x208 + 0 x209 + 0 x210 + 0 x211 + 0 x212 + 0 x213 + 0 x214 + 0 x215 
  + 0 x216 + 0 x217 + 0 x218 + 0 x219 + 0 x220 + 0 x221 + 0 x222 + 0 x223 + 0 x224 + 0 x225 + 0 x226 
  + 0 x227 + 0 x228 + 0 x229 + 0 x230 + 0 x231 + 0 x232 + 0 x233 + 0 x234 + 0 x235 + 0 x236 + 0 x237 
  + 0 x238 + 0 x239 + 0 x240 + 0 x241 + 0 x242 + 0 x243 + 0 x244 + 0 x245 + 0 x246 + 0 x247 + 0 x248 
  + 0 x249 + 0 x250 + 0 x251 + 0 x252 + 0 x253 + 0 x254 + 0 x255 + 0 x256 + 0 x257 + 0 x258 + 0 x259 
  + 0 x260 + 0 x261 + 0 x262 + 0 x263 + 0 x264 + 0 x265 + 0 x266 + 0 x267 + 0 x268 + 0 x269 + 0 x270 
  + 0 x271 + 0 x272 + 0 x273 + 0 x274 + 0 x275 + 0 x276 + 0 x277 + 0 x278 + 0 x279 + 0 x280 + 0 x281 
  + 0 x282 + 0 x283 + 0 x284 + 0 x285 + 0 x286 + 0 x287 + 0 x288 + 0 x289 + 0 x290 + 0 x291 + 0 x292 
  + 0 x293 + 0 x294 + 0 x295 + 0 x296 + 0 x297 + 0 x298 + 0 x299 + 0 x300 + 0 x301 + 0 x302 + 0 x303 
  + 0 x304 + 0 x305 + 0 x306 + 0 x307 + 0 x308 + 0 x309 + 0 x310 + 0 x311 + 0 x312 + 0 x313 + 0 x314 
  + 0 x315 + 0 x316 + 0 x317 + 0 x318 + 0 x319 + 0 x320 + 0 x321 + 0 x322 + 0 x323 + 0 x324 + 0 x325 
  + 0 x326 + 0 x327 + 0 x328 + 0 x329 + 0 x330 + 0 x331 + 0 x332 + 0 x333 + 0 x334 + 0 x335 + 0 x336

Subject To
 e2: - 66 x112 + 49 x113 - 81 x114 + 73 x115 + 15 x116 - x117 <= 56
 e3: 38 x112 - 26 x113 + 74 x114 + 48 x115 - 11 x116 - x118 <= -29
 e4: 46 x112 - 48 x113 - 21 x114 + 55 x115 + 68 x116 - x119 <= 14
 e5: 42 x112 - 84 x113 - 9 x114 - 78 x115 + 8 x116 - x120 <= -22
 e6: 13 x112 + 91 x113 + 73 x114 - 68 x115 - 45 x116 - x121 <= -48
 e7: 84 x112 - 13 x113 + 57 x114 - 75 x115 - 84 x116 - x122 <= 88
 e8: - 95 x112 - 70 x113 - 24 x114 - 69 x115 + 5 x116 - x123 <= 75
 e9: - 14 x112 - 47 x113 - 37 x114 + 53 x115 - 79 x116 - x124 <= 53
 e10: 40 x112 - 57 x113 + 52 x114 - 18 x115 + 29 x116 - x125 <= 85
 e11: 37 x113 - 13 x114 + 21 x115 + 14 x116 - x126 <= 26
 e12: - 7 x112 + 26 x113 - 73 x114 + 92 x115 - 71 x116 - x127 <= -11
 e13: - 35 x112 + 90 x113 - 29 x114 - 20 x115 - 80 x116 - x128 <= 90
 e14: 96 x112 + 14 x113 + 73 x114 - 70 x115 + 81 x116 - x129 <= 29
 e15: - 88 x112 + 90 x113 + 93 x114 + 56 x115 + 60 x116 - x130 <= 13
 e16: - 44 x112 + 92 x113 + 15 x114 - 13 x115 - 25 x116 - x131 <= 84
 e17: - 95 x112 + 53 x113 + 44 x114 + 17 x115 - 15 x116 - x132 <= 28
 e18: 49 x112 - 87 x113 - 90 x114 + 54 x115 + 40 x116 - x133 <= -76
 e19: - 40 x112 - 86 x113 + 37 x114 - 27 x115 + 45 x116 - x134 <= -61
 e20: - 69 x112 - 68 x113 + 66 x114 + 9 x115 - 37 x116 - x135 <= 5
 e21: - 13 x112 - 58 x113 + 45 x114 - 100 x115 + 16 x116 - x136 <= -5
 e22: 87 x112 + 52 x113 - 75 x114 - 98 x115 - x137 <= 68
 e23: 70 x112 - 82 x113 + 71 x114 + 57 x115 + 15 x116 - x138 <= -81
 e24: 65 x112 + 49 x113 + 81 x114 + x115 + 76 x116 - x139 <= 92
 e25: 12 x112 - 5 x113 - 17 x114 + 29 x115 + 75 x116 - x140 <= 16
 e26: - 56 x112 + 99 x113 - 69 x114 + 38 x115 + 40 x116 - x141 <= 97
 e27: 29 x112 + 30 x113 + 68 x114 + 36 x115 + 93 x116 - x142 <= -34
 e28: 59 x112 - 68 x113 + 72 x114 + 20 x115 - 16 x116 - x143 <= 96
 e29: 73 x112 - 7 x113 - 51 x114 + 68 x115 + 68 x116 - x144 <= 47
 e30: - 74 x112 - 5 x113 + 56 x114 + 13 x116 - x145 <= -11
 e31: - 93 x112 - 34 x113 - 15 x114 + 16 x115 - 83 x116 - x146 <= 34
 e32: 17 x112 - 53 x113 + 48 x114 + 91 x115 + 72 x116 - x147 <= -86
 e33: 7 x112 - 24 x113 - 100 x114 + 43 x115 - 90 x116 - x148 <= -96
 e34: 51 x112 + 25 x113 + 86 x114 + 9 x115 - 17 x116 - x149 <= -22
 e35: - 61 x112 - 39 x113 - 58 x114 + 21 x115 - 26 x116 - x150 <= -68
 e36: - 8 x112 + 60 x113 - 64 x114 + 43 x115 - 5 x116 - x151 <= -72
 e37: 26 x112 - 52 x113 - 76 x114 + 74 x115 - 80 x116 - x152 <= 50
 e38: - 24 x112 + 10 x113 - 85 x114 - 25 x115 + 24 x116 - x153 <= 57
 e39: - 16 x112 + 64 x113 + 9 x114 + 45 x115 - 2 x116 - x154 <= -48
 e40: - 2 x113 - 2 x114 + 69 x115 + 83 x116 - x155 <= -28
 e41: 8 x112 + 20 x113 + 21 x114 - 12 x115 + 41 x116 - x156 <= -57
 e42: 52 x112 - 39 x113 + 57 x114 - 82 x115 + 79 x116 - x157 <= 86
 e43: 93 x112 + 23 x113 - 87 x114 - 78 x115 + 25 x116 - x158 <= -86
 e44: 11 x112 - 53 x113 + 22 x114 + 86 x115 + 13 x116 - x159 <= 14
 e45: - 7 x112 - 76 x113 - 53 x114 + 99 x115 + 11 x116 - x160 <= 72
 e46: - 43 x112 + 45 x113 + 64 x114 - 2 x115 + 18 x116 - x161 <= -78
 e47: - 69 x112 + 39 x113 + 18 x114 + 76 x115 - 14 x116 - x162 <= -58
 e48: - 64 x112 + 37 x113 - 57 x114 - 47 x115 - 56 x116 - x163 <= -1
 e49: - 47 x112 - 11 x113 - 53 x114 - 41 x115 + 29 x116 - x164 <= 49
 e50: 38 x112 - 15 x113 + 51 x114 - 20 x115 - 25 x116 - x165 <= 27
 e51: 6 x112 + 79 x113 + 30 x114 + 86 x115 - 99 x116 - x166 <= -66
 e52: 28 x112 + 52 x113 + 34 x114 + 53 x115 + 50 x116 - x167 <= 79
 e53: - 57 x112 + 26 x113 + 19 x114 + 24 x115 - 27 x116 - x168 <= -86
 e54: - 50 x112 - 28 x113 - 3 x114 - 42 x116 - x169 <= -53
 e55: 32 x112 + 79 x113 + 33 x114 - 92 x115 + 67 x116 - x170 <= 13
 e56: - 64 x112 - 95 x113 - 5 x114 + 12 x115 - 67 x116 - x171 <= 21
 e57: 28 x112 - 39 x113 + 91 x114 + 52 x115 + 26 x116 - x172 <= -87
 e58: - 74 x112 + 51 x113 - 4 x114 + 42 x115 - 77 x116 - x173 <= 27
 e59: - 20 x112 + 40 x113 + 56 x114 + 40 x115 - 47 x116 - x174 <= 55
 e60: - 74 x112 - 45 x113 - 84 x114 - 58 x115 - 61 x116 - x175 <= 23
 e61: 20 x112 + 9 x113 + 13 x114 - 75 x115 - 86 x116 - x176 <= 76
 e62: - 70 x112 + 12 x113 - 37 x114 - 33 x115 - 59 x116 - x177 <= 34
 e63: - 93 x112 - 92 x113 + 63 x114 - 88 x115 + 41 x116 - x178 <= -18
 e64: 77 x112 + 87 x113 - 100 x114 - 30 x115 + 87 x116 - x179 <= 98
 e65: - 28 x112 + 95 x113 - 95 x114 - 32 x115 + 69 x116 - x180 <= -12
 e66: 40 x112 + 13 x113 - 80 x114 - 64 x115 - 52 x116 - x181 <= 36
 e67: 97 x112 + 2 x113 + 80 x114 - 7 x115 - 5 x116 - x182 <= -19
 e68: 51 x112 - 77 x113 - 71 x114 + 39 x115 - 48 x116 - x183 <= 5
 e69: - 87 x112 - 71 x113 - 18 x114 - 84 x115 + 27 x116 - x184 <= -97
 e70: - 52 x112 + 15 x113 - 68 x114 - 47 x115 - 85 x116 - x185 <= -71
 e71: - 83 x112 - 72 x113 - 6 x114 + 44 x115 - 5 x116 - x186 <= 11
 e72: - x112 - 84 x113 - 41 x114 - 41 x115 - 34 x116 - x187 <= -83
 e73: - 81 x112 - 60 x113 - 79 x114 - 66 x115 + 66 x116 - x188 <= 65
 e74: 84 x112 + 6 x113 - 6 x114 + 39 x115 + x116 - x189 <= 53
 e75: 96 x112 - 7 x113 + 33 x114 + 78 x115 + 70 x116 - x190 <= 50
 e76: 42 x112 - 83 x113 + 59 x114 - 25 x115 - 9 x116 - x191 <= -27
 e77: 55 x112 + 19 x113 - 89 x114 - 76 x115 + 11 x116 - x192 <= 30
 e78: - 88 x112 + 4 x113 + 68 x114 - 69 x115 - 100 x116 - x193 <= 79
 e79: - 57 x112 - 63 x113 + 93 x114 + 63 x115 + 41 x116 - x194 <= 17
 e80: 35 x112 + 54 x113 - 54 x114 - 57 x115 - 26 x116 - x195 <= 64
 e81: - 68 x112 + 22 x113 - 76 x114 - 13 x115 - 100 x116 - x196 <= 3
 e82: - 8 x112 + 37 x113 - 94 x114 - 19 x115 - x197 <= -44
 e83: 99 x112 - 27 x113 - 26 x114 + 90 x115 - 84 x116 - x198 <= 22
 e84: 58 x112 - 29 x113 + 94 x114 - 64 x115 - 14 x116 - x199 <= 56
 e85: - 77 x112 + 6 x113 - 52 x114 + 22 x115 + 55 x116 - x200 <= -64
 e86: - 2 x112 + 86 x113 - 37 x114 - 28 x115 - 80 x116 - x201 <= -26
 e87: 77 x112 + 78 x113 + 97 x114 - 79 x115 - 70 x116 - x202 <= 87
 e88: 56 x112 + 75 x113 - 48 x114 - 75 x115 + 7 x116 - x203 <= -31
 e89: - 23 x112 - 26 x113 - 5 x114 + 45 x115 + 86 x116 - x204 <= -1
 e90: - 5 x112 + 91 x113 - 40 x114 - 10 x115 + 64 x116 - x205 <= -24
 e91: 45 x112 - 31 x113 + 31 x114 + 72 x115 + 32 x116 - x206 <= 60
 e92: 85 x112 - 36 x113 - 5 x114 + 13 x115 - 15 x116 - x207 <= 89
 e93: - 83 x112 - 15 x113 - 38 x114 + 39 x115 - 29 x116 - x208 <= 6
 e94: - 78 x112 + 47 x113 + 85 x114 - 72 x115 + 88 x116 - x209 <= -96
 e95: - 20 x112 - 60 x113 - 80 x114 - 93 x115 - 19 x116 - x210 <= -11
 e96: 36 x112 - 49 x113 + 62 x114 - 81 x115 + 29 x116 - x211 <= 1
 e97: - 69 x113 + 26 x114 - 79 x115 - 58 x116 - x212 <= 77
 e98: 97 x112 - 97 x113 + 72 x114 - 76 x115 - 74 x116 - x213 <= 13
 e99: - 74 x112 + 72 x113 + 8 x114 - 11 x115 - 37 x116 - x214 <= -14
 e100: 93 x112 + 61 x113 + 44 x114 + 68 x115 + 86 x116 - x215 <= -77
 e101: - 7 x112 - 22 x113 - 24 x114 - 50 x115 - 74 x116 - x216 <= 24
 e102: 23 x112 - 2 x113 + 3 x114 + 56 x115 - 45 x116 - x217 <= -15
 e103: - 79 x112 - 54 x113 + 80 x114 + 15 x115 + 62 x116 - x218 <= 56
 e104: 41 x112 - 32 x113 + 87 x114 - 59 x115 + 44 x116 - x219 <= 66
 e105: - 31 x112 - 35 x113 - 32 x114 + 5 x115 + 10 x116 - x220 <= -97
 e106: - 9 x112 - 50 x114 + x115 - 52 x116 - x221 <= 21
 e107: - 41 x112 + 82 x113 + 13 x114 - 41 x115 - 3 x116 - x222 <= -72
 e108: 28 x112 - 74 x113 + 64 x114 + 2 x115 - 19 x116 - x223 <= -69
 e109: 43 x112 - 4 x113 + 43 x114 + 70 x115 + 67 x116 - x224 <= -5
 e110: 82 x112 - 84 x113 - 67 x114 + 35 x115 + 53 x116 - x225 <= 82
 e111: - 14 x112 + 71 x113 - 30 x114 + 33 x115 - 57 x116 - x226 <= -2
 e112: - b2 - x227 = -1
 e113: - b3 - x228 = -1
 e114: - b4 - x229 = -1
 e115: - b5 - x230 = -1
 e116: - b6 - x231 = -1
 e117: - b7 - x232 = -1
 e118: - b8 - x233 = -1
 e119: - b9 - x234 = -1
 e120: - b10 - x235 = -1
 e121: - b11 - x236 = -1
 e122: - b12 - x237 = -1
 e123: - b13 - x238 = -1
 e124: - b14 - x239 = -1
 e125: - b15 - x240 = -1
 e126: - b16 - x241 = -1
 e127: - b17 - x242 = -1
 e128: - b18 - x243 = -1
 e129: - b19 - x244 = -1
 e130: - b20 - x245 = -1
 e131: - b21 - x246 = -1
 e132: - b22 - x247 = -1
 e133: - b23 - x248 = -1
 e134: - b24 - x249 = -1
 e135: - b25 - x250 = -1
 e136: - b26 - x251 = -1
 e137: - b27 - x252 = -1
 e138: - b28 - x253 = -1
 e139: - b29 - x254 = -1
 e140: - b30 - x255 = -1
 e141: - b31 - x256 = -1
 e142: - b32 - x257 = -1
 e143: - b33 - x258 = -1
 e144: - b34 - x259 = -1
 e145: - b35 - x260 = -1
 e146: - b36 - x261 = -1
 e147: - b37 - x262 = -1
 e148: - b38 - x263 = -1
 e149: - b39 - x264 = -1
 e150: - b40 - x265 = -1
 e151: - b41 - x266 = -1
 e152: - b42 - x267 = -1
 e153: - b43 - x268 = -1
 e154: - b44 - x269 = -1
 e155: - b45 - x270 = -1
 e156: - b46 - x271 = -1
 e157: - b47 - x272 = -1
 e158: - b48 - x273 = -1
 e159: - b49 - x274 = -1
 e160: - b50 - x275 = -1
 e161: - b51 - x276 = -1
 e162: - b52 - x277 = -1
 e163: - b53 - x278 = -1
 e164: - b54 - x279 = -1
 e165: - b55 - x280 = -1
 e166: - b56 - x281 = -1
 e167: - b57 - x282 = -1
 e168: - b58 - x283 = -1
 e169: - b59 - x284 = -1
 e170: - b60 - x285 = -1
 e171: - b61 - x286 = -1
 e172: - b62 - x287 = -1
 e173: - b63 - x288 = -1
 e174: - b64 - x289 = -1
 e175: - b65 - x290 = -1
 e176: - b66 - x291 = -1
 e177: - b67 - x292 = -1
 e178: - b68 - x293 = -1
 e179: - b69 - x294 = -1
 e180: - b70 - x295 = -1
 e181: - b71 - x296 = -1
 e182: - b72 - x297 = -1
 e183: - b73 - x298 = -1
 e184: - b74 - x299 = -1
 e185: - b75 - x300 = -1
 e186: - b76 - x301 = -1
 e187: - b77 - x302 = -1
 e188: - b78 - x303 = -1
 e189: - b79 - x304 = -1
 e190: - b80 - x305 = -1
 e191: - b81 - x306 = -1
 e192: - b82 - x307 = -1
 e193: - b83 - x308 = -1
 e194: - b84 - x309 = -1
 e195: - b85 - x310 = -1
 e196: - b86 - x311 = -1
 e197: - b87 - x312 = -1
 e198: - b88 - x313 = -1
 e199: - b89 - x314 = -1
 e200: - b90 - x315 = -1
 e201: - b91 - x316 = -1
 e202: - b92 - x317 = -1
 e203: - b93 - x318 = -1
 e204: - b94 - x319 = -1
 e205: - b95 - x320 = -1
 e206: - b96 - x321 = -1
 e207: - b97 - x322 = -1
 e208: - b98 - x323 = -1
 e209: - b99 - x324 = -1
 e210: - b100 - x325 = -1
 e211: - b101 - x326 = -1
 e212: - b102 - x327 = -1
 e213: - b103 - x328 = -1
 e214: - b104 - x329 = -1
 e215: - b105 - x330 = -1
 e216: - b106 - x331 = -1
 e217: - b107 - x332 = -1
 e218: - b108 - x333 = -1
 e219: - b109 - x334 = -1
 e220: - b110 - x335 = -1
 e221: - b111 - x336 = -1
 e222: [ x117 * x227 ] = 0
 e223: [ x118 * x228 ] = 0
 e224: [ x119 * x229 ] = 0
 e225: [ x120 * x230 ] = 0
 e226: [ x121 * x231 ] = 0
 e227: [ x122 * x232 ] = 0
 e228: [ x123 * x233 ] = 0
 e229: [ x124 * x234 ] = 0
 e230: [ x125 * x235 ] = 0
 e231: [ x126 * x236 ] = 0
 e232: [ x127 * x237 ] = 0
 e233: [ x128 * x238 ] = 0
 e234: [ x129 * x239 ] = 0
 e235: [ x130 * x240 ] = 0
 e236: [ x131 * x241 ] = 0
 e237: [ x132 * x242 ] = 0
 e238: [ x133 * x243 ] = 0
 e239: [ x134 * x244 ] = 0
 e240: [ x135 * x245 ] = 0
 e241: [ x136 * x246 ] = 0
 e242: [ x137 * x247 ] = 0
 e243: [ x138 * x248 ] = 0
 e244: [ x139 * x249 ] = 0
 e245: [ x140 * x250 ] = 0
 e246: [ x141 * x251 ] = 0
 e247: [ x142 * x252 ] = 0
 e248: [ x143 * x253 ] = 0
 e249: [ x144 * x254 ] = 0
 e250: [ x145 * x255 ] = 0
 e251: [ x146 * x256 ] = 0
 e252: [ x147 * x257 ] = 0
 e253: [ x148 * x258 ] = 0
 e254: [ x149 * x259 ] = 0
 e255: [ x150 * x260 ] = 0
 e256: [ x151 * x261 ] = 0
 e257: [ x152 * x262 ] = 0
 e258: [ x153 * x263 ] = 0
 e259: [ x154 * x264 ] = 0
 e260: [ x155 * x265 ] = 0
 e261: [ x156 * x266 ] = 0
 e262: [ x157 * x267 ] = 0
 e263: [ x158 * x268 ] = 0
 e264: [ x159 * x269 ] = 0
 e265: [ x160 * x270 ] = 0
 e266: [ x161 * x271 ] = 0
 e267: [ x162 * x272 ] = 0
 e268: [ x163 * x273 ] = 0
 e269: [ x164 * x274 ] = 0
 e270: [ x165 * x275 ] = 0
 e271: [ x166 * x276 ] = 0
 e272: [ x167 * x277 ] = 0
 e273: [ x168 * x278 ] = 0
 e274: [ x169 * x279 ] = 0
 e275: [ x170 * x280 ] = 0
 e276: [ x171 * x281 ] = 0
 e277: [ x172 * x282 ] = 0
 e278: [ x173 * x283 ] = 0
 e279: [ x174 * x284 ] = 0
 e280: [ x175 * x285 ] = 0
 e281: [ x176 * x286 ] = 0
 e282: [ x177 * x287 ] = 0
 e283: [ x178 * x288 ] = 0
 e284: [ x179 * x289 ] = 0
 e285: [ x180 * x290 ] = 0
 e286: [ x181 * x291 ] = 0
 e287: [ x182 * x292 ] = 0
 e288: [ x183 * x293 ] = 0
 e289: [ x184 * x294 ] = 0
 e290: [ x185 * x295 ] = 0
 e291: [ x186 * x296 ] = 0
 e292: [ x187 * x297 ] = 0
 e293: [ x188 * x298 ] = 0
 e294: [ x189 * x299 ] = 0
 e295: [ x190 * x300 ] = 0
 e296: [ x191 * x301 ] = 0
 e297: [ x192 * x302 ] = 0
 e298: [ x193 * x303 ] = 0
 e299: [ x194 * x304 ] = 0
 e300: [ x195 * x305 ] = 0
 e301: [ x196 * x306 ] = 0
 e302: [ x197 * x307 ] = 0
 e303: [ x198 * x308 ] = 0
 e304: [ x199 * x309 ] = 0
 e305: [ x200 * x310 ] = 0
 e306: [ x201 * x311 ] = 0
 e307: [ x202 * x312 ] = 0
 e308: [ x203 * x313 ] = 0
 e309: [ x204 * x314 ] = 0
 e310: [ x205 * x315 ] = 0
 e311: [ x206 * x316 ] = 0
 e312: [ x207 * x317 ] = 0
 e313: [ x208 * x318 ] = 0
 e314: [ x209 * x319 ] = 0
 e315: [ x210 * x320 ] = 0
 e316: [ x211 * x321 ] = 0
 e317: [ x212 * x322 ] = 0
 e318: [ x213 * x323 ] = 0
 e319: [ x214 * x324 ] = 0
 e320: [ x215 * x325 ] = 0
 e321: [ x216 * x326 ] = 0
 e322: [ x217 * x327 ] = 0
 e323: [ x218 * x328 ] = 0
 e324: [ x219 * x329 ] = 0
 e325: [ x220 * x330 ] = 0
 e326: [ x221 * x331 ] = 0
 e327: [ x222 * x332 ] = 0
 e328: [ x223 * x333 ] = 0
 e329: [ x224 * x334 ] = 0
 e330: [ x225 * x335 ] = 0
 e331: [ x226 * x336 ] = 0

Bounds
 x112 Free
 x113 Free
 x114 Free
 x115 Free
 x116 Free
 x227 Free
 x228 Free
 x229 Free
 x230 Free
 x231 Free
 x232 Free
 x233 Free
 x234 Free
 x235 Free
 x236 Free
 x237 Free
 x238 Free
 x239 Free
 x240 Free
 x241 Free
 x242 Free
 x243 Free
 x244 Free
 x245 Free
 x246 Free
 x247 Free
 x248 Free
 x249 Free
 x250 Free
 x251 Free
 x252 Free
 x253 Free
 x254 Free
 x255 Free
 x256 Free
 x257 Free
 x258 Free
 x259 Free
 x260 Free
 x261 Free
 x262 Free
 x263 Free
 x264 Free
 x265 Free
 x266 Free
 x267 Free
 x268 Free
 x269 Free
 x270 Free
 x271 Free
 x272 Free
 x273 Free
 x274 Free
 x275 Free
 x276 Free
 x277 Free
 x278 Free
 x279 Free
 x280 Free
 x281 Free
 x282 Free
 x283 Free
 x284 Free
 x285 Free
 x286 Free
 x287 Free
 x288 Free
 x289 Free
 x290 Free
 x291 Free
 x292 Free
 x293 Free
 x294 Free
 x295 Free
 x296 Free
 x297 Free
 x298 Free
 x299 Free
 x300 Free
 x301 Free
 x302 Free
 x303 Free
 x304 Free
 x305 Free
 x306 Free
 x307 Free
 x308 Free
 x309 Free
 x310 Free
 x311 Free
 x312 Free
 x313 Free
 x314 Free
 x315 Free
 x316 Free
 x317 Free
 x318 Free
 x319 Free
 x320 Free
 x321 Free
 x322 Free
 x323 Free
 x324 Free
 x325 Free
 x326 Free
 x327 Free
 x328 Free
 x329 Free
 x330 Free
 x331 Free
 x332 Free
 x333 Free
 x334 Free
 x335 Free
 x336 Free

Binary
 b2 b3 b4 b5 b6 b7 b8 b9 b10 b11 b12 b13 b14 b15 b16 b17 b18 b19 b20 b21 b22 b23 b24 b25 b26
 b27 b28 b29 b30 b31 b32 b33 b34 b35 b36 b37 b38 b39 b40 b41 b42 b43 b44 b45 b46 b47 b48 b49
 b50 b51 b52 b53 b54 b55 b56 b57 b58 b59 b60 b61 b62 b63 b64 b65 b66 b67 b68 b69 b70 b71 b72
 b73 b74 b75 b76 b77 b78 b79 b80 b81 b82 b83 b84 b85 b86 b87 b88 b89 b90 b91 b92 b93 b94 b95
 b96 b97 b98 b99 b100 b101 b102 b103 b104 b105 b106 b107 b108 b109 b110 b111

End
