\ Equation counts
\     Total        E        G        L        N        X        C        B
\       204      192        0       12        0        0        0        0
\ 
\ Variable counts
\                  x        b        i      s1s      s2s       sc       si
\     Total     cont   binary  integer     sos1     sos2    scont     sint
\       208      208        0        0        0        0        0        0
\ 
\ Nonzero counts
\     Total    const       NL      DLL
\       842      662      180        0
\ 
Minimize
 obj: x2 + x3 + x4 + x5 + x6 + 0 x7 + 0 x8 + 0 x9 + 0 x10 + 0 x11 + 0 x12 + 0 x13 + 0 x14 + 0 x15 + 0 x16 
  + 0 x17 + 0 x18 + 0 x19 + 0 x20 + 0 x21 + 0 x22 + 0 x23 + 0 x24 + 0 x25 + 0 x26 + 0 x27 + 0 x28 + 0 x29 
  + 0 x30 + 0 x31 + 0 x32 + 0 x33 + 0 x34 + 0 x35 + 0 x36 + 0 x37 + 0 x38 + 0 x39 + 0 x40 + 0 x41 + 0 x42 
  + 0 x43 + 0 x44 + 0 x45 + 0 x46 + 0 x47 + 0 x48 + 0 x49 + 0 x50 + 0 x51 + 0 x52 + 0 x53 + 0 x54 + 0 x55 
  + 0 x56 + 0 x57 + 0 x58 + 0 x59 + 0 x60 + 0 x61 + 0 x62 + 0 x63 + 0 x64 + 0 x65 + 0 x66 + 0 x67 + 0 x68 
  + 0 x69 + 0 x70 + 0 x71 + 0 x72 + 0 x73 + 0 x74 + 0 x75 + 0 x76 + 0 x77 + 0 x78 + 0 x79 + 0 x80 + 0 x81 
  + 0 x82 + 0 x83 + 0 x84 + 0 x85 + 0 x86 + 0 x87 + 0 x88 + 0 x89 + 0 x90 + 0 x91 + 0 x92 + 0 x93 + 0 x94 
  + 0 x95 + 0 x96 + 0 x97 + 0 x98 + 0 x99 + 0 x100 + 0 x101 + 0 x102 + 0 x103 + 0 x104 + 0 x105 + 0 x106 
  + 0 x107 + 0 x108 + 0 x109 + 0 x110 + 0 x111 + 0 x112 + 0 x113 + 0 x114 + 0 x115 + 0 x116 + 0 x117 
  + 0 x118 + 0 x119 + 0 x120 + 0 x121 + 0 x122 + 0 x123 + 0 x124 + 0 x125 + 0 x126 + 0 x127 + 0 x128 
  + 0 x129 + 0 x130 + 0 x131 + 0 x132 + 0 x133 + 0 x134 + 0 x135 + 0 x136 + 0 x137 + 0 x138 + 0 x139 
  + 0 x140 + 0 x141 + 0 x142 + 0 x143 + 0 x144 + 0 x145 + 0 x146 + 0 x147 + 0 x148 + 0 x149 + 0 x150 
  + 0 x151 + 0 x152 + 0 x153 + 0 x154 + 0 x155 + 0 x156 + 0 x157 + 0 x158 + 0 x159 + 0 x160 + 0 x161 
  + 0 x162 + 0 x163 + 0 x164 + 0 x165 + 0 x166 + 0 x167 + 0 x168 + 0 x169 + 0 x170 + 0 x171 + 0 x172 
  + 0 x173 + 0 x174 + 0 x175 + 0 x176 + 0 x177 + 0 x178 + 0 x179 + 0 x180 + 0 x181 + 0 x182 + 0 x183 
  + 0 x184 + 0 x185 + 0 x186 + 0 x187 + 0 x188 + 0 x189 + 0 x190 + 0 x191 + 0 x192 + 0 x193 + 0 x194 
  + 0 x195 + 0 x196 + 0 x197 + 0 x198 + 0 x199 + 0 x200 + 0 x201 + 0 x202 + 0 x203 + 0 x204 + 0 x205 
  + 0 x206 + 0 x207 + 0 x208 + 0 x209

Subject To
 e2: - x7 - x8 - x9 - x10 - x11 - x12 = -50
 e3: - x13 - x14 - x15 - x16 - x17 - x18 = -120
 e4: - x19 - x20 - x21 - x22 - x23 - x24 = -70
 e5: x2 - x8 - x14 - x20 - x25 - x26 - x27 - x28 - x29 = 0
 e6: x3 - x9 - x15 - x21 - x30 - x31 - x32 - x33 - x34 = 0
 e7: x4 - x10 - x16 - x22 - x35 - x36 - x37 - x38 - x39 = 0
 e8: x5 - x11 - x17 - x23 - x40 - x41 - x42 - x43 - x44 = 0
 e9: x6 - x12 - x18 - x24 - x45 - x46 - x47 - x48 - x49 = 0
 e10: x2 - x25 - x30 - x35 - x40 - x45 - x50 = 0
 e11: x3 - x26 - x31 - x36 - x41 - x46 - x51 = 0
 e12: x4 - x27 - x32 - x37 - x42 - x47 - x52 = 0
 e13: x5 - x28 - x33 - x38 - x43 - x48 - x53 = 0
 e14: x6 - x29 - x34 - x39 - x44 - x49 - x54 = 0
 e15: - x7 - x13 - x19 - x50 - x51 - x52 - x53 - x54 + x55 = 0
 e16: - x56 - x57 - x58 - x59 - x60 - x61 = -500
 e17: - x62 - x63 - x64 - x65 - x66 - x67 = -10000
 e18: - x68 - x69 - x70 - x71 - x72 - x73 = -13200
 e19: - x74 - x75 - x76 - x77 - x78 - x79 = -16800
 e20: - x80 - x81 - x82 - x83 - x84 - x85 = -7000
 e21: - x86 - x87 - x88 - x89 - x90 - x91 = -1750
 e22: - x57 + 500 x92 = 0
 e23: - x63 + 10000 x92 = 0
 e24: - x58 + 500 x93 = 0
 e25: - x64 + 10000 x93 = 0
 e26: - x59 + 500 x94 = 0
 e27: - x65 + 10000 x94 = 0
 e28: - x60 + 500 x95 = 0
 e29: - x66 + 10000 x95 = 0
 e30: - x61 + 500 x96 = 0
 e31: - x67 + 10000 x96 = 0
 e32: - x69 + 13200 x97 = 0
 e33: - x75 + 16800 x97 = 0
 e34: - x70 + 13200 x98 = 0
 e35: - x76 + 16800 x98 = 0
 e36: - x71 + 13200 x99 = 0
 e37: - x77 + 16800 x99 = 0
 e38: - x72 + 13200 x100 = 0
 e39: - x78 + 16800 x100 = 0
 e40: - x73 + 13200 x101 = 0
 e41: - x79 + 16800 x101 = 0
 e42: - x81 + 7000 x102 = 0
 e43: - x87 + 1750 x102 = 0
 e44: - x82 + 7000 x103 = 0
 e45: - x88 + 1750 x103 = 0
 e46: - x83 + 7000 x104 = 0
 e47: - x89 + 1750 x104 = 0
 e48: - x84 + 7000 x105 = 0
 e49: - x90 + 1750 x105 = 0
 e50: - x85 + 7000 x106 = 0
 e51: - x91 + 1750 x106 = 0
 e52: - x56 + 500 x107 = 0
 e53: - x62 + 10000 x107 = 0
 e54: - x68 + 13200 x108 = 0
 e55: - x74 + 16800 x108 = 0
 e56: - x80 + 7000 x109 = 0
 e57: - x86 + 1750 x109 = 0
 e58: - x8 + 50 x92 = 0
 e59: - x9 + 50 x93 = 0
 e60: - x10 + 50 x94 = 0
 e61: - x11 + 50 x95 = 0
 e62: - x12 + 50 x96 = 0
 e63: - x14 + 120 x97 = 0
 e64: - x15 + 120 x98 = 0
 e65: - x16 + 120 x99 = 0
 e66: - x17 + 120 x100 = 0
 e67: - x18 + 120 x101 = 0
 e68: - x20 + 70 x102 = 0
 e69: - x21 + 70 x103 = 0
 e70: - x22 + 70 x104 = 0
 e71: - x23 + 70 x105 = 0
 e72: - x24 + 70 x106 = 0
 e73: - x7 + 50 x107 = 0
 e74: - x13 + 120 x108 = 0
 e75: - x19 + 70 x109 = 0
 e76: x92 + x93 + x94 + x95 + x96 + x107 = 1
 e77: x97 + x98 + x99 + x100 + x101 + x108 = 1
 e78: x102 + x103 + x104 + x105 + x106 + x109 = 1
 e79: - 145 x2 + x57 + x69 + x81 + x110 + x111 + x112 + x113 + x114 <= 0
 e80: - 400 x2 + x63 + x75 + x87 + x115 + x116 + x117 + x118 + x119 <= 0
 e81: - 110 x3 + x58 + x70 + x82 + x120 + x121 + x122 + x123 + x124 <= 0
 e82: - 90 x3 + x64 + x76 + x88 + x125 + x126 + x127 + x128 + x129 <= 0
 e83: - 90 x4 + x59 + x71 + x83 + x130 + x131 + x132 + x133 + x134 <= 0
 e84: - 100 x4 + x65 + x77 + x89 + x135 + x136 + x137 + x138 + x139 <= 0
 e85: - 200 x5 + x60 + x72 + x84 + x140 + x141 + x142 + x143 + x144 <= 0
 e86: - 90 x5 + x66 + x78 + x90 + x145 + x146 + x147 + x148 + x149 <= 0
 e87: - 50 x6 + x61 + x73 + x85 + x150 + x151 + x152 + x153 + x154 <= 0
 e88: - 80 x6 + x67 + x79 + x91 + x155 + x156 + x157 + x158 + x159 <= 0
 e89: 0.1 x57 + 0.1 x69 + 0.1 x81 + 0.1 x110 + 0.1 x111 + 0.1 x112 + 0.1 x113 + 0.1 x114 - x160 = 0
 e90: x63 + x75 + x87 + x115 + x116 + x117 + x118 + x119 - x161 = 0
 e91: 0.3 x58 + 0.3 x70 + 0.3 x82 + 0.3 x120 + 0.3 x121 + 0.3 x122 + 0.3 x123 + 0.3 x124 - x162 = 0
 e92: 0.1 x64 + 0.1 x76 + 0.1 x88 + 0.1 x125 + 0.1 x126 + 0.1 x127 + 0.1 x128 + 0.1 x129 - x163 = 0
 e93: x59 + x71 + x83 + x130 + x131 + x132 + x133 + x134 - x164 = 0
 e94: 0.2 x65 + 0.2 x77 + 0.2 x89 + 0.2 x135 + 0.2 x136 + 0.2 x137 + 0.2 x138 + 0.2 x139 - x165 = 0
 e95: 0.5 x60 + 0.5 x72 + 0.5 x84 + 0.5 x140 + 0.5 x141 + 0.5 x142 + 0.5 x143 + 0.5 x144 - x166 = 0
 e96: x66 + x78 + x90 + x145 + x146 + x147 + x148 + x149 - x167 = 0
 e97: 0.35 x61 + 0.35 x73 + 0.35 x85 + 0.35 x150 + 0.35 x151 + 0.35 x152 + 0.35 x153 + 0.35 x154 - x168
   = 0
 e98: 0.4 x67 + 0.4 x79 + 0.4 x91 + 0.4 x155 + 0.4 x156 + 0.4 x157 + 0.4 x158 + 0.4 x159 - x169 = 0
 e99: - x110 - x120 - x130 - x140 - x150 + x160 - x170 = 0
 e100: - x115 - x125 - x135 - x145 - x155 + x161 - x171 = 0
 e101: - x111 - x121 - x131 - x141 - x151 + x162 - x172 = 0
 e102: - x116 - x126 - x136 - x146 - x156 + x163 - x173 = 0
 e103: - x112 - x122 - x132 - x142 - x152 + x164 - x174 = 0
 e104: - x117 - x127 - x137 - x147 - x157 + x165 - x175 = 0
 e105: - x113 - x123 - x133 - x143 - x153 + x166 - x176 = 0
 e106: - x118 - x128 - x138 - x148 - x158 + x167 - x177 = 0
 e107: - x114 - x124 - x134 - x144 - x154 + x168 - x178 = 0
 e108: - x119 - x129 - x139 - x149 - x159 + x169 - x179 = 0
 e109: x180 + x181 + x182 + x183 + x184 + x185 = 1
 e110: x186 + x187 + x188 + x189 + x190 + x191 = 1
 e111: x192 + x193 + x194 + x195 + x196 + x197 = 1
 e112: x198 + x199 + x200 + x201 + x202 + x203 = 1
 e113: x204 + x205 + x206 + x207 + x208 + x209 = 1
 e114: - 10 x55 + x56 + x68 + x80 + x170 + x172 + x174 + x176 + x178 <= 0
 e115: - 5 x55 + x62 + x74 + x86 + x171 + x173 + x175 + x177 + x179 <= 0
 e116: - x110 + [ x160 * x180 ] = 0
 e117: - x115 + [ x161 * x180 ] = 0
 e118: - x120 + [ x160 * x181 ] = 0
 e119: - x125 + [ x161 * x181 ] = 0
 e120: - x130 + [ x160 * x182 ] = 0
 e121: - x135 + [ x161 * x182 ] = 0
 e122: - x140 + [ x160 * x183 ] = 0
 e123: - x145 + [ x161 * x183 ] = 0
 e124: - x150 + [ x160 * x184 ] = 0
 e125: - x155 + [ x161 * x184 ] = 0
 e126: - x111 + [ x162 * x186 ] = 0
 e127: - x116 + [ x163 * x186 ] = 0
 e128: - x121 + [ x162 * x187 ] = 0
 e129: - x126 + [ x163 * x187 ] = 0
 e130: - x131 + [ x162 * x188 ] = 0
 e131: - x136 + [ x163 * x188 ] = 0
 e132: - x141 + [ x162 * x189 ] = 0
 e133: - x146 + [ x163 * x189 ] = 0
 e134: - x151 + [ x162 * x190 ] = 0
 e135: - x156 + [ x163 * x190 ] = 0
 e136: - x112 + [ x164 * x192 ] = 0
 e137: - x117 + [ x165 * x192 ] = 0
 e138: - x122 + [ x164 * x193 ] = 0
 e139: - x127 + [ x165 * x193 ] = 0
 e140: - x132 + [ x164 * x194 ] = 0
 e141: - x137 + [ x165 * x194 ] = 0
 e142: - x142 + [ x164 * x195 ] = 0
 e143: - x147 + [ x165 * x195 ] = 0
 e144: - x152 + [ x164 * x196 ] = 0
 e145: - x157 + [ x165 * x196 ] = 0
 e146: - x113 + [ x166 * x198 ] = 0
 e147: - x118 + [ x167 * x198 ] = 0
 e148: - x123 + [ x166 * x199 ] = 0
 e149: - x128 + [ x167 * x199 ] = 0
 e150: - x133 + [ x166 * x200 ] = 0
 e151: - x138 + [ x167 * x200 ] = 0
 e152: - x143 + [ x166 * x201 ] = 0
 e153: - x148 + [ x167 * x201 ] = 0
 e154: - x153 + [ x166 * x202 ] = 0
 e155: - x158 + [ x167 * x202 ] = 0
 e156: - x114 + [ x168 * x204 ] = 0
 e157: - x119 + [ x169 * x204 ] = 0
 e158: - x124 + [ x168 * x205 ] = 0
 e159: - x129 + [ x169 * x205 ] = 0
 e160: - x134 + [ x168 * x206 ] = 0
 e161: - x139 + [ x169 * x206 ] = 0
 e162: - x144 + [ x168 * x207 ] = 0
 e163: - x149 + [ x169 * x207 ] = 0
 e164: - x154 + [ x168 * x208 ] = 0
 e165: - x159 + [ x169 * x208 ] = 0
 e166: - x170 + [ x160 * x185 ] = 0
 e167: - x171 + [ x161 * x185 ] = 0
 e168: - x172 + [ x162 * x191 ] = 0
 e169: - x173 + [ x163 * x191 ] = 0
 e170: - x174 + [ x164 * x197 ] = 0
 e171: - x175 + [ x165 * x197 ] = 0
 e172: - x176 + [ x166 * x203 ] = 0
 e173: - x177 + [ x167 * x203 ] = 0
 e174: - x178 + [ x168 * x209 ] = 0
 e175: - x179 + [ x169 * x209 ] = 0
 e176: - x25 + [ x2 * x180 ] = 0
 e177: - x30 + [ x2 * x181 ] = 0
 e178: - x35 + [ x2 * x182 ] = 0
 e179: - x40 + [ x2 * x183 ] = 0
 e180: - x45 + [ x2 * x184 ] = 0
 e181: - x26 + [ x3 * x186 ] = 0
 e182: - x31 + [ x3 * x187 ] = 0
 e183: - x36 + [ x3 * x188 ] = 0
 e184: - x41 + [ x3 * x189 ] = 0
 e185: - x46 + [ x3 * x190 ] = 0
 e186: - x27 + [ x4 * x192 ] = 0
 e187: - x32 + [ x4 * x193 ] = 0
 e188: - x37 + [ x4 * x194 ] = 0
 e189: - x42 + [ x4 * x195 ] = 0
 e190: - x47 + [ x4 * x196 ] = 0
 e191: - x28 + [ x5 * x198 ] = 0
 e192: - x33 + [ x5 * x199 ] = 0
 e193: - x38 + [ x5 * x200 ] = 0
 e194: - x43 + [ x5 * x201 ] = 0
 e195: - x48 + [ x5 * x202 ] = 0
 e196: - x29 + [ x6 * x204 ] = 0
 e197: - x34 + [ x6 * x205 ] = 0
 e198: - x39 + [ x6 * x206 ] = 0
 e199: - x44 + [ x6 * x207 ] = 0
 e200: - x49 + [ x6 * x208 ] = 0
 e201: - x50 + [ x2 * x185 ] = 0
 e202: - x51 + [ x3 * x191 ] = 0
 e203: - x52 + [ x4 * x197 ] = 0
 e204: - x53 + [ x5 * x203 ] = 0
 e205: - x54 + [ x6 * x209 ] = 0

Bounds
 x2 <= 1000000
 x3 <= 1000000
 x4 <= 1000000
 x5 <= 1000000
 x6 <= 1000000
 x7 <= 1000000
 x8 <= 1000000
 x9 <= 1000000
 x10 <= 1000000
 x11 <= 1000000
 x12 <= 1000000
 x13 <= 1000000
 x14 <= 1000000
 x15 <= 1000000
 x16 <= 1000000
 x17 <= 1000000
 x18 <= 1000000
 x19 <= 1000000
 x20 <= 1000000
 x21 <= 1000000
 x22 <= 1000000
 x23 <= 1000000
 x24 <= 1000000
 x25 <= 1000000
 x26 <= 1000000
 x27 <= 1000000
 x28 <= 1000000
 x29 <= 1000000
 x30 <= 1000000
 x31 <= 1000000
 x32 <= 1000000
 x33 <= 1000000
 x34 <= 1000000
 x35 <= 1000000
 x36 <= 1000000
 x37 <= 1000000
 x38 <= 1000000
 x39 <= 1000000
 x40 <= 1000000
 x41 <= 1000000
 x42 <= 1000000
 x43 <= 1000000
 x44 <= 1000000
 x45 <= 1000000
 x46 <= 1000000
 x47 <= 1000000
 x48 <= 1000000
 x49 <= 1000000
 x50 <= 1000000
 x51 <= 1000000
 x52 <= 1000000
 x53 <= 1000000
 x54 <= 1000000
 x55 <= 1000000
 x56 <= 1000000
 x57 <= 1000000
 x58 <= 1000000
 x59 <= 1000000
 x60 <= 1000000
 x61 <= 1000000
 x62 <= 1000000
 x63 <= 1000000
 x64 <= 1000000
 x65 <= 1000000
 x66 <= 1000000
 x67 <= 1000000
 x68 <= 1000000
 x69 <= 1000000
 x70 <= 1000000
 x71 <= 1000000
 x72 <= 1000000
 x73 <= 1000000
 x74 <= 1000000
 x75 <= 1000000
 x76 <= 1000000
 x77 <= 1000000
 x78 <= 1000000
 x79 <= 1000000
 x80 <= 1000000
 x81 <= 1000000
 x82 <= 1000000
 x83 <= 1000000
 x84 <= 1000000
 x85 <= 1000000
 x86 <= 1000000
 x87 <= 1000000
 x88 <= 1000000
 x89 <= 1000000
 x90 <= 1000000
 x91 <= 1000000
 x92 <= 1000000
 x93 <= 1000000
 x94 <= 1000000
 x95 <= 1000000
 x96 <= 1000000
 x97 <= 1000000
 x98 <= 1000000
 x99 <= 1000000
 x100 <= 1000000
 x101 <= 1000000
 x102 <= 1000000
 x103 <= 1000000
 x104 <= 1000000
 x105 <= 1000000
 x106 <= 1000000
 x107 <= 1000000
 x108 <= 1000000
 x109 <= 1000000
 x110 <= 1000000
 x111 <= 1000000
 x112 <= 1000000
 x113 <= 1000000
 x114 <= 1000000
 x115 <= 1000000
 x116 <= 1000000
 x117 <= 1000000
 x118 <= 1000000
 x119 <= 1000000
 x120 <= 1000000
 x121 <= 1000000
 x122 <= 1000000
 x123 <= 1000000
 x124 <= 1000000
 x125 <= 1000000
 x126 <= 1000000
 x127 <= 1000000
 x128 <= 1000000
 x129 <= 1000000
 x130 <= 1000000
 x131 <= 1000000
 x132 <= 1000000
 x133 <= 1000000
 x134 <= 1000000
 x135 <= 1000000
 x136 <= 1000000
 x137 <= 1000000
 x138 <= 1000000
 x139 <= 1000000
 x140 <= 1000000
 x141 <= 1000000
 x142 <= 1000000
 x143 <= 1000000
 x144 <= 1000000
 x145 <= 1000000
 x146 <= 1000000
 x147 <= 1000000
 x148 <= 1000000
 x149 <= 1000000
 x150 <= 1000000
 x151 <= 1000000
 x152 <= 1000000
 x153 <= 1000000
 x154 <= 1000000
 x155 <= 1000000
 x156 <= 1000000
 x157 <= 1000000
 x158 <= 1000000
 x159 <= 1000000
 x160 <= 1000000
 x161 <= 1000000
 x162 <= 1000000
 x163 <= 1000000
 x164 <= 1000000
 x165 <= 1000000
 x166 <= 1000000
 x167 <= 1000000
 x168 <= 1000000
 x169 <= 1000000
 x170 <= 1000000
 x171 <= 1000000
 x172 <= 1000000
 x173 <= 1000000
 x174 <= 1000000
 x175 <= 1000000
 x176 <= 1000000
 x177 <= 1000000
 x178 <= 1000000
 x179 <= 1000000
 x180 <= 1000000
 x181 <= 1000000
 x182 <= 1000000
 x183 <= 1000000
 x184 <= 1000000
 x185 <= 1000000
 x186 <= 1000000
 x187 <= 1000000
 x188 <= 1000000
 x189 <= 1000000
 x190 <= 1000000
 x191 <= 1000000
 x192 <= 1000000
 x193 <= 1000000
 x194 <= 1000000
 x195 <= 1000000
 x196 <= 1000000
 x197 <= 1000000
 x198 <= 1000000
 x199 <= 1000000
 x200 <= 1000000
 x201 <= 1000000
 x202 <= 1000000
 x203 <= 1000000
 x204 <= 1000000
 x205 <= 1000000
 x206 <= 1000000
 x207 <= 1000000
 x208 <= 1000000
 x209 <= 1000000

End
