\ Equation counts
\     Total        E        G        L        N        X        C        B
\       164      162        2        0        0        0        0        0
\ 
\ Variable counts
\                  x        b        i      s1s      s2s       sc       si
\     Total     cont   binary  integer     sos1     sos2    scont     sint
\       307      251       56        0        0        0        0        0
\ 
\ Nonzero counts
\     Total    const       NL      DLL
\       619      463      156        0
\ 
Minimize
 obj: 8000 x2 + 8000 x3 + 53.6 x4 + 0 x5 + 0 x6 + 0 x7 + 0 x8 + 0 x9 + 0 x10 + 0 x11 + 0 x12 + 0 x13 
  + 0 x14 + 1680 x15 + 1260 x16 + 0 b17 + 0 b18 + 0 b19 + 0 b20 + 0 b21 + 0 b22 + 0 b23 + 0 b24 + 0 b25 
  + 0 x26 + 0 x27 + 0 b28 + 0 x29 + 0 x30 + 0 b31 + 0 x32 + 0 x33 + 0 b34 + 0 x35 + 0 x36 + 0 b37 + 0 x38 
  + 0 x39 + 0 b40 + 0 x41 + 0 x42 + 0 b43 + 0 x44 + 0 x45 + 0 b46 + 0 x47 + 0 x48 + 0 b49 + 0 x50 + 0 x51 
  + 0 b52 + 0 x53 + 0 x54 + 0 b55 + 0 x56 + 0 x57 + 0 b58 + 0 x59 + 0 x60 + 0 b61 + 0 x62 + 0 x63 + 0 b64 
  + 0 x65 + 0 x66 + 0 b67 + 0 x68 + 0 x69 + 0 b70 + 0 x71 + 0 x72 + 0 b73 + 0 x74 + 0 x75 + 0 b76 + 0 x77 
  + 0 x78 + 0 b79 + 0 x80 + 0 x81 + 0 b82 + 0 x83 + 0 x84 + 0 x85 + 0 x86 + 0 x87 + 0 x88 + 0 x89 + 0 x90 
  + 0 x91 + 0 x92 + 0 b93 + 0 x94 + 0 x95 + 0 b96 + 0 x97 + 0 x98 + 0 b99 + 0 x100 + 0 x101 + 0 b102 
  + 0 x103 + 0 x104 + 0 b105 + 0 x106 + 0 x107 + 0 b108 + 0 x109 + 0 x110 + 0 b111 + 0 x112 + 0 x113 
  + 0 b114 + 0 x115 + 0 x116 + 0 b117 + 0 x118 + 0 x119 + 0 b120 + 0 x121 + 0 x122 + 0 b123 + 0 x124 
  + 0 x125 + 0 b126 + 0 x127 + 0 x128 + 0 b129 + 0 x130 + 0 x131 + 0 b132 + 0 x133 + 0 x134 + 0 b135 
  + 0 x136 + 0 x137 + 0 b138 + 0 x139 + 0 x140 + 0 b141 + 0 x142 + 0 x143 + 0 b144 + 0 x145 + 0 x146 
  + 0 b147 + 0 x148 + 0 x149 + 0 b150 + 0 x151 + 0 x152 + 0 b153 + 0 x154 + 0 x155 + 0 b156 + 0 x157 
  + 0 x158 + 0 b159 + 0 x160 + 0 x161 + 0 b162 + 0 x163 + 0 x164 + 0 b165 + 0 x166 + 0 x167 + 0 b168 
  + 0 x169 + 0 x170 + 0 b171 + 0 x172 + 0 x173 + 0 b174 + 0 x175 + 0 x176 + 0 x177 + 0 x178 + 0 x179 
  + 0 x180 + 0 x181 + 0 x182 + 0 x183 + 0 x184 + 0 x185 + 0 x186 + 0 x187 + 0 x188 + 0 x189 + 0 x190 
  + 0 x191 + 0 x192 + 0 x193 + 0 x194 + 0 x195 + 0 x196 + 0 x197 + 0 x198 + 0 x199 + 0 x200 + 0 x201 
  + 0 x202 + 0 x203 + 0 x204 + 0 x205 + 0 x206 + 0 x207 + 0 x208 + 0 x209 + 0 x210 + 0 x211 + 0 x212 
  + 0 x213 + 0 x214 + 0 x215 + 0 x216 + 0 x217 + 0 x218 + 0 x219 + 0 x220 + 0 x221 + 0 x222 + 0 x223 
  + 0 x224 + 0 x225 + 0 x226 + 0 x227 + 0 x228 + 0 x229 + 0 x230 + 0 x231 + 0 x232 + 0 x233 + 0 x234 
  + 0 x235 + 0 x236 + 0 x237 + 0 x238 + 0 x239 + 0 x240 + 0 x241 + 0 x242 + 0 x243 + 0 x244 + 0 x245 
  + 0 x246 + 0 x247 + 0 x248 + 0 x249 + 0 x250 + 0 x251 + 0 x252 + 0 x253 + 0 x254 + 0 x255 + 0 x256 
  + 0 x257 + 0 x258 + 0 x259 + 0 x260 + 0 x261 + 0 x262 + 0 x263 + 0 x264 + 0 x265 + 0 x266 + 0 x267 
  + 0 x268 + 0 x269 + 0 x270 + 0 x271 + 0 x272 + 0 x273 + 0 x274 + 0 x275 + 0 x276 + 0 x277 + 0 x278 
  + 0 x279 + 0 x280 + 0 x281 + 0 x282 + 0 x283 + 0 x284 + 0 x285 + 0 x286 + 0 x287 + 0 x288 + 0 x289 
  + 0 x290 + 0 x291 + 0 x292 + 0 x293 + 0 x294 + 0 x295 + 0 x296 + 0 x297 + 0 x298 + 0 x299 + 0 x300 
  + 0 x301 + 0 x302 + 0 x303 + 0 x304 + 0 x305 + 0 x306 + 0 x307 + 0 x308

Subject To
 e2: b17 + b18 + b19 + b20 = 1
 e3: b21 + b22 + b23 + b24 = 1
 e4: - b25 + x26 + x27 = 0
 e5: - b28 + x29 + x30 = 0
 e6: - b31 + x32 + x33 = 0
 e7: - b34 + x35 + x36 = 0
 e8: - b37 + x38 + x39 = 0
 e9: - b40 + x41 + x42 = 0
 e10: - b43 + x44 + x45 = 0
 e11: - b46 + x47 + x48 = 0
 e12: - b49 + x50 + x51 = 0
 e13: - b52 + x53 + x54 = 0
 e14: - b55 + x56 + x57 = 0
 e15: - b58 + x59 + x60 = 0
 e16: - b61 + x62 + x63 = 0
 e17: - b64 + x65 + x66 = 0
 e18: - b67 + x68 + x69 = 0
 e19: - b70 + x71 + x72 = 0
 e20: - b73 + x74 + x75 = 0
 e21: - b76 + x77 + x78 = 0
 e22: - b79 + x80 + x81 = 0
 e23: - b82 + x83 + x84 = 0
 e24: - b17 + x85 + x86 = 0
 e25: - b18 + x87 + x88 = 0
 e26: - b19 + x89 + x90 = 0
 e27: - b20 + x91 + x92 = 0
 e28: - b93 + x94 + x95 = 0
 e29: - b96 + x97 + x98 = 0
 e30: - b99 + x100 + x101 = 0
 e31: - b102 + x103 + x104 = 0
 e32: - b105 + x106 + x107 = 0
 e33: - b108 + x109 + x110 = 0
 e34: - b111 + x112 + x113 = 0
 e35: - b114 + x115 + x116 = 0
 e36: - b117 + x118 + x119 = 0
 e37: - b120 + x121 + x122 = 0
 e38: - b123 + x124 + x125 = 0
 e39: - b126 + x127 + x128 = 0
 e40: - b129 + x130 + x131 = 0
 e41: - b132 + x133 + x134 = 0
 e42: - b135 + x136 + x137 = 0
 e43: - b138 + x139 + x140 = 0
 e44: - b141 + x142 + x143 = 0
 e45: - b144 + x145 + x146 = 0
 e46: - b147 + x148 + x149 = 0
 e47: - b150 + x151 + x152 = 0
 e48: - b153 + x154 + x155 = 0
 e49: - b156 + x157 + x158 = 0
 e50: - b159 + x160 + x161 = 0
 e51: - b162 + x163 + x164 = 0
 e52: - b165 + x166 + x167 = 0
 e53: - b168 + x169 + x170 = 0
 e54: - b171 + x172 + x173 = 0
 e55: - b174 + x175 + x176 = 0
 e56: - b21 + x177 + x178 = 0
 e57: - b22 + x179 + x180 = 0
 e58: - b23 + x181 + x182 = 0
 e59: - b24 + x183 + x184 = 0
 e60: x3 - 55 x86 - 55 x87 - 110 x88 - 110 x89 - 165 x90 - 165 x91 - 220 x92 = 0
 e61: x4 - 55 x178 - 55 x179 - 110 x180 - 110 x181 - 165 x182 - 165 x183 - 220 x184 = 0
 e62: x15 - 16.52927795 x86 - 16.52927795 x87 - 26.85189125 x88 - 26.85189125 x89 - 35.66471525 x90 - 35.66471525 x91 
  - 43.62102603 x92 - 43.62102603 x185 >= 0
 e63: x16 - 16.52927795 x178 - 16.52927795 x179 - 26.85189125 x180 - 26.85189125 x181 - 35.66471525 x182 
  - 35.66471525 x183 - 43.62102603 x184 - 43.62102603 x186 >= 0
 e64: x187 + x188 + x189 + x190 + x191 + x192 = 40
 e65: x193 + x194 + x195 + x196 + x197 + x198 = 50
 e66: x199 + x200 + x201 + x202 + x203 + x204 = 60
 e67: x205 + x206 + x207 + x208 + x209 + x210 = 70
 e68: x211 + x212 + x213 + x214 + x215 - x216 = 0
 e69: x217 + x218 + x219 + x220 + x221 - x222 = 0
 e70: - x2 + x223 + x224 + x225 + x226 + x227 + x228 = 0
 e71: x194 + x200 + x206 + x211 + x217 + x223 = 40
 e72: x188 + x201 + x207 + x212 + x218 + x224 = 50
 e73: x189 + x195 + x208 + x213 + x219 + x225 = 60
 e74: x190 + x196 + x202 + x214 + x220 + x226 = 70
 e75: - x3 + x191 + x197 + x203 + x209 + x221 + x227 = 0
 e76: - x4 + x192 + x198 + x204 + x210 + x215 + x228 = 0
 e77: x229 - x230 = 0
 e78: - x230 + x231 = 0
 e79: - x230 + x232 = 0
 e80: - x230 + x233 = 0
 e81: - x230 + x234 = 0
 e82: - x230 + x235 = 0
 e83: x236 - x237 = 0
 e84: - x237 + x238 = 0
 e85: - x237 + x239 = 0
 e86: - x237 + x240 = 0
 e87: - x237 + x241 = 0
 e88: - x237 + x242 = 0
 e89: x243 - x244 = 0
 e90: - x244 + x245 = 0
 e91: - x244 + x246 = 0
 e92: - x244 + x247 = 0
 e93: - x244 + x248 = 0
 e94: - x244 + x249 = 0
 e95: x250 - x251 = 0
 e96: - x251 + x252 = 0
 e97: - x251 + x253 = 0
 e98: - x251 + x254 = 0
 e99: - x251 + x255 = 0
 e100: - x251 + x256 = 0
 e101: x257 - x258 = 0
 e102: - x258 + x259 = 0
 e103: - x258 + x260 = 0
 e104: - x258 + x261 = 0
 e105: - x258 + x262 = 0
 e106: - x258 + x263 = 0
 e107: x264 - x265 = 0
 e108: - x265 + x266 = 0
 e109: - x265 + x267 = 0
 e110: - x265 + x268 = 0
 e111: - x265 + x269 = 0
 e112: - x265 + x270 = 0
 e113: x271 - x272 = 0
 e114: - x272 + x273 = 0
 e115: - x272 + x274 = 0
 e116: - x272 + x275 = 0
 e117: - x272 + x276 = 0
 e118: - x272 + x277 = 0
 e119: x278 - x279 = 0
 e120: - x279 + x280 = 0
 e121: - x279 + x281 = 0
 e122: - x279 + x282 = 0
 e123: - x279 + x283 = 0
 e124: - x279 + x284 = 0
 e125: x285 - x286 = 0
 e126: - x286 + x287 = 0
 e127: - x286 + x288 = 0
 e128: - x286 + x289 = 0
 e129: - x286 + x290 = 0
 e130: - x286 + x291 = 0
 e131: x292 - x293 = 0
 e132: - x293 + x294 = 0
 e133: - x293 + x295 = 0
 e134: - x293 + x296 = 0
 e135: - x293 + x297 = 0
 e136: - x293 + x298 = 0
 e137: - x2 + x187 + x193 + x199 + x205 = 0
 e138: 50 x230 - 50 x299 = 1000
 e139: 60 x237 - 60 x300 = 1000
 e140: 70 x244 - 70 x301 = 2000
 e141: 50 x265 - 50 x302 = 1000
 e142: 60 x272 - 60 x303 = 1000
 e143: 70 x279 - 70 x304 = 2000
 e144: x3 - x216 = 0
 e145: x4 - x222 = 0
 e146: x251 - 0.05 x305 = 0
 e147: x258 - x306 = 0
 e148: x286 - x307 = 0
 e149: x293 - 0.1 x308 = 0
 e150: 25 x194 - 50 x299 + [ x6 * x193 + x195 * x238 + x196 * x245 + x197 * x252 + x198 * x259 ] = 0
 e151: 25 x200 - 60 x300 + [ x7 * x199 + x201 * x231 + x202 * x246 + x203 * x253 + x204 * x260 ] = 0
 e152: 25 x206 - 70 x301 + [ x8 * x205 + x207 * x232 + x208 * x239 + x209 * x254 + x210 * x261 ] = 0
 e153: 37.5 x194 - 50 x302 + [ x10 * x193 + x195 * x273 + x196 * x280 + x197 * x287 + x198 * x294 ] = 
  0
 e154: 37.5 x200 - 60 x303 + [ x11 * x199 + x201 * x266 + x202 * x281 + x203 * x288 + x204 * x295 ] = 
  0
 e155: 37.5 x206 - 70 x304 + [ x12 * x205 + x207 * x267 + x208 * x274 + x209 * x289 + x210 * x296 ] = 
  0
 e156: 25 x211 + [ x212 * x233 + x213 * x240 + x214 * x247 + x215 * x262 - x216 * x305 ] = 0
 e157: 25 x217 + [ x218 * x234 + x219 * x241 + x220 * x248 + x221 * x255 - x222 * x306 ] = 0
 e158: 25 x223 + [ - x2 * x13 + x224 * x235 + x225 * x242 + x226 * x249 + x227 * x256 + x228 * x263 ]
   = 0
 e159: 37.5 x211 + [ x212 * x268 + x213 * x275 + x214 * x282 + x215 * x297 - x216 * x307 ] = 0
 e160: 37.5 x217 + [ x218 * x269 + x219 * x276 + x220 * x283 + x221 * x290 - x222 * x308 ] = 0
 e161: 37.5 x223 + [ - x2 * x14 + x224 * x270 + x225 * x277 + x226 * x284 + x227 * x291 + x228 * x298 
  ] = 0
 e162: [ - x2 * x13 - 0.95 x216 * x305 ] = -5000
 e163: [ - x2 * x14 - 0.9 x222 * x308 ] = -5500
 e164: [ x5 * x187 + x188 * x229 + x189 * x236 + x190 * x243 + x191 * x250 + x192 * x257 ] = 0
 e165: [ x9 * x187 + x188 * x264 + x189 * x271 + x190 * x278 + x191 * x285 + x192 * x292 ] = 0

Bounds
 x2 <= 220
 x3 <= 220
 x4 <= 220
 x5 <= 78.57142857
 x6 <= 78.57142857
 x7 <= 78.57142857
 x8 <= 78.57142857
 x9 <= 78.57142857
 x10 <= 78.57142857
 x11 <= 78.57142857
 x12 <= 78.57142857
 x13 <= 10
 x14 <= 10
 x15 <= 43.62102603
 x16 <= 43.62102603
 x26 <= 1
 x27 <= 1
 x29 <= 1
 x30 <= 1
 x32 <= 1
 x33 <= 1
 x35 <= 1
 x36 <= 1
 x38 <= 1
 x39 <= 1
 x41 <= 1
 x42 <= 1
 x44 <= 1
 x45 <= 1
 x47 <= 1
 x48 <= 1
 x50 <= 1
 x51 <= 1
 x53 <= 1
 x54 <= 1
 x56 <= 1
 x57 <= 1
 x59 <= 1
 x60 <= 1
 x62 <= 1
 x63 <= 1
 x65 <= 1
 x66 <= 1
 x68 <= 1
 x69 <= 1
 x71 <= 1
 x72 <= 1
 x74 <= 1
 x75 <= 1
 x77 <= 1
 x78 <= 1
 x80 <= 1
 x81 <= 1
 x83 <= 1
 x84 <= 1
 x85 <= 1
 x86 <= 1
 x87 <= 1
 x88 <= 1
 x89 <= 1
 x90 <= 1
 x91 <= 1
 x92 <= 1
 x94 <= 1
 x95 <= 1
 x97 <= 1
 x98 <= 1
 x100 <= 1
 x101 <= 1
 x103 <= 1
 x104 <= 1
 x106 <= 1
 x107 <= 1
 x109 <= 1
 x110 <= 1
 x112 <= 1
 x113 <= 1
 x115 <= 1
 x116 <= 1
 x118 <= 1
 x119 <= 1
 x121 <= 1
 x122 <= 1
 x124 <= 1
 x125 <= 1
 x127 <= 1
 x128 <= 1
 x130 <= 1
 x131 <= 1
 x133 <= 1
 x134 <= 1
 x136 <= 1
 x137 <= 1
 x139 <= 1
 x140 <= 1
 x142 <= 1
 x143 <= 1
 x145 <= 1
 x146 <= 1
 x148 <= 1
 x149 <= 1
 x151 <= 1
 x152 <= 1
 x154 <= 1
 x155 <= 1
 x157 <= 1
 x158 <= 1
 x160 <= 1
 x161 <= 1
 x163 <= 1
 x164 <= 1
 x166 <= 1
 x167 <= 1
 x169 <= 1
 x170 <= 1
 x172 <= 1
 x173 <= 1
 x175 <= 1
 x176 <= 1
 x177 <= 1
 x178 <= 1
 x179 <= 1
 x180 <= 1
 x181 <= 1
 x182 <= 1
 x183 <= 1
 x184 <= 1
 x185 <= 1
 x186 <= 1
 x187 <= 220
 x188 <= 220
 x189 <= 220
 x190 <= 220
 x191 <= 220
 x192 <= 220
 x193 <= 220
 x194 <= 220
 x195 <= 220
 x196 <= 220
 x197 <= 220
 x198 <= 220
 x199 <= 220
 x200 <= 220
 x201 <= 220
 x202 <= 220
 x203 <= 220
 x204 <= 220
 x205 <= 220
 x206 <= 220
 x207 <= 220
 x208 <= 220
 x209 <= 220
 x210 <= 220
 x211 <= 220
 x212 <= 220
 x213 <= 220
 x214 <= 220
 x215 <= 220
 x216 <= 220
 x217 <= 220
 x218 <= 220
 x219 <= 220
 x220 <= 220
 x221 <= 220
 x222 <= 220
 x223 <= 220
 x224 <= 220
 x225 <= 220
 x226 <= 220
 x227 <= 220
 x228 <= 220
 x229 <= 78.57142857
 x230 <= 70
 x231 <= 78.57142857
 x232 <= 78.57142857
 x233 <= 78.57142857
 x234 <= 78.57142857
 x235 <= 78.57142857
 x236 <= 78.57142857
 x237 <= 66.66666667
 x238 <= 78.57142857
 x239 <= 78.57142857
 x240 <= 78.57142857
 x241 <= 78.57142857
 x242 <= 78.57142857
 x243 <= 78.57142857
 x244 <= 78.57142857
 x245 <= 78.57142857
 x246 <= 78.57142857
 x247 <= 78.57142857
 x248 <= 78.57142857
 x249 <= 78.57142857
 x250 <= 78.57142857
 x251 <= 3.928571429
 x252 <= 78.57142857
 x253 <= 78.57142857
 x254 <= 78.57142857
 x255 <= 78.57142857
 x256 <= 78.57142857
 x257 <= 78.57142857
 x258 <= 78.57142857
 x259 <= 78.57142857
 x260 <= 78.57142857
 x261 <= 78.57142857
 x262 <= 78.57142857
 x263 <= 78.57142857
 x264 <= 78.57142857
 x265 <= 70
 x266 <= 78.57142857
 x267 <= 78.57142857
 x268 <= 78.57142857
 x269 <= 78.57142857
 x270 <= 78.57142857
 x271 <= 78.57142857
 x272 <= 66.66666667
 x273 <= 78.57142857
 x274 <= 78.57142857
 x275 <= 78.57142857
 x276 <= 78.57142857
 x277 <= 78.57142857
 x278 <= 78.57142857
 x279 <= 78.57142857
 x280 <= 78.57142857
 x281 <= 78.57142857
 x282 <= 78.57142857
 x283 <= 78.57142857
 x284 <= 78.57142857
 x285 <= 78.57142857
 x286 <= 78.57142857
 x287 <= 78.57142857
 x288 <= 78.57142857
 x289 <= 78.57142857
 x290 <= 78.57142857
 x291 <= 78.57142857
 x292 <= 78.57142857
 x293 <= 7.857142857
 x294 <= 78.57142857
 x295 <= 78.57142857
 x296 <= 78.57142857
 x297 <= 78.57142857
 x298 <= 78.57142857
 x299 <= 50
 x300 <= 50
 x301 <= 50
 x302 <= 50
 x303 <= 50
 x304 <= 50
 x305 <= 78.57142857
 x306 <= 78.57142857
 x307 <= 78.57142857
 x308 <= 78.57142857

Binary
 b17 b18 b19 b20 b21 b22 b23 b24 b25 b28 b31 b34 b37 b40 b43 b46 b49 b52 b55 b58 b61 b64 b67
 b70 b73 b76 b79 b82 b93 b96 b99 b102 b105 b108 b111 b114 b117 b120 b123 b126 b129 b132 b135
 b138 b141 b144 b147 b150 b153 b156 b159 b162 b165 b168 b171 b174

End
