\ Equation counts
\     Total        E        G        L        N        X        C        B
\       191        1        0      190        0        0        0        0
\ 
\ Variable counts
\                  x        b        i      s1s      s2s       sc       si
\     Total     cont   binary  integer     sos1     sos2    scont     sint
\        38       38        0        0        0        0        0        0
\ 
\ Nonzero counts
\     Total    const       NL      DLL
\       762        2      760        0
\ 
Maximize
 obj: 0 x2 + 0 x3 + 0 x4 + 0 x5 + 0 x6 + 0 x7 + 0 x8 + 0 x9 + 0 x10 + 0 x11 + 0 x12 + 0 x13 + 0 x14 + 0 x15 
  + 0 x16 + 0 x17 + 0 x18 + 0.25 x19 + 0 x20 + 0 x21 + 0 x22 + 0 x23 + 0 x24 + 0 x25 + 0 x26 + 0 x27 
  + 0 x28 + 0 x29 + 0 x30 + 0 x31 + 0 x32 + 0 x33 + 0 x34 + 0 x35 + 0 x36 - 0.25 x37 + 0 x38 + 0 x39 + 
  [ - x2 * x19 + x2 * x21 - x3 * x20 + x3 * x22 - x4 * x21 + x4 * x23 - x5 * x22 + x5 * x24 - x6 * x23 
  + x6 * x25 - x7 * x24 + x7 * x26 - x8 * x25 + x8 * x27 - x9 * x26 + x9 * x28 - x10 * x27 + x10 * x29 
  - x11 * x28 + x11 * x30 - x12 * x29 + x12 * x31 - x13 * x30 + x13 * x32 - x14 * x31 + x14 * x33 - x15 * x32 
  + x15 * x34 - x16 * x33 + x16 * x35 - x17 * x34 + x17 * x36 - x18 * x35 + x18 * x37 + x20 * x38 - x36 * x39 
  ]/2

Subject To
 e2: x38 - x39 = 0
 e3: - x38 + [ x19^2 + x38^2 ] <= 3.75
 e4: - x2 + [ x2^2 + x20^2 ] <= 3.75
 e5: - x3 + [ x3^2 + x21^2 ] <= 3.75
 e6: - x4 + [ x4^2 + x22^2 ] <= 3.75
 e7: - x5 + [ x5^2 + x23^2 ] <= 3.75
 e8: - x6 + [ x6^2 + x24^2 ] <= 3.75
 e9: - x7 + [ x7^2 + x25^2 ] <= 3.75
 e10: - x8 + [ x8^2 + x26^2 ] <= 3.75
 e11: - x9 + [ x9^2 + x27^2 ] <= 3.75
 e12: - x10 + [ x10^2 + x28^2 ] <= 3.75
 e13: - x11 + [ x11^2 + x29^2 ] <= 3.75
 e14: - x12 + [ x12^2 + x30^2 ] <= 3.75
 e15: - x13 + [ x13^2 + x31^2 ] <= 3.75
 e16: - x14 + [ x14^2 + x32^2 ] <= 3.75
 e17: - x15 + [ x15^2 + x33^2 ] <= 3.75
 e18: - x16 + [ x16^2 + x34^2 ] <= 3.75
 e19: - x17 + [ x17^2 + x35^2 ] <= 3.75
 e20: - x18 + [ x18^2 + x36^2 ] <= 3.75
 e21: - x39 + [ x37^2 + x39^2 ] <= 3.75
 e22: [ x2^2 - 2 x2 * x38 + x19^2 - 2 x19 * x20 + x20^2 + x38^2 ] <= 4
 e23: [ x3^2 - 2 x3 * x38 + x19^2 - 2 x19 * x21 + x21^2 + x38^2 ] <= 4
 e24: [ x4^2 - 2 x4 * x38 + x19^2 - 2 x19 * x22 + x22^2 + x38^2 ] <= 4
 e25: [ x5^2 - 2 x5 * x38 + x19^2 - 2 x19 * x23 + x23^2 + x38^2 ] <= 4
 e26: [ x6^2 - 2 x6 * x38 + x19^2 - 2 x19 * x24 + x24^2 + x38^2 ] <= 4
 e27: [ x7^2 - 2 x7 * x38 + x19^2 - 2 x19 * x25 + x25^2 + x38^2 ] <= 4
 e28: [ x8^2 - 2 x8 * x38 + x19^2 - 2 x19 * x26 + x26^2 + x38^2 ] <= 4
 e29: [ x9^2 - 2 x9 * x38 + x19^2 - 2 x19 * x27 + x27^2 + x38^2 ] <= 4
 e30: [ x10^2 - 2 x10 * x38 + x19^2 - 2 x19 * x28 + x28^2 + x38^2 ] <= 4
 e31: [ x11^2 - 2 x11 * x38 + x19^2 - 2 x19 * x29 + x29^2 + x38^2 ] <= 4
 e32: [ x12^2 - 2 x12 * x38 + x19^2 - 2 x19 * x30 + x30^2 + x38^2 ] <= 4
 e33: [ x13^2 - 2 x13 * x38 + x19^2 - 2 x19 * x31 + x31^2 + x38^2 ] <= 4
 e34: [ x14^2 - 2 x14 * x38 + x19^2 - 2 x19 * x32 + x32^2 + x38^2 ] <= 4
 e35: [ x15^2 - 2 x15 * x38 + x19^2 - 2 x19 * x33 + x33^2 + x38^2 ] <= 4
 e36: [ x16^2 - 2 x16 * x38 + x19^2 - 2 x19 * x34 + x34^2 + x38^2 ] <= 4
 e37: [ x17^2 - 2 x17 * x38 + x19^2 - 2 x19 * x35 + x35^2 + x38^2 ] <= 4
 e38: [ x18^2 - 2 x18 * x38 + x19^2 - 2 x19 * x36 + x36^2 + x38^2 ] <= 4
 e39: [ x19^2 - 2 x19 * x37 + x37^2 + x38^2 - 2 x38 * x39 + x39^2 ] <= 4
 e40: [ x2^2 - 2 x2 * x3 + x3^2 + x20^2 - 2 x20 * x21 + x21^2 ] <= 4
 e41: [ x2^2 - 2 x2 * x4 + x4^2 + x20^2 - 2 x20 * x22 + x22^2 ] <= 4
 e42: [ x2^2 - 2 x2 * x5 + x5^2 + x20^2 - 2 x20 * x23 + x23^2 ] <= 4
 e43: [ x2^2 - 2 x2 * x6 + x6^2 + x20^2 - 2 x20 * x24 + x24^2 ] <= 4
 e44: [ x2^2 - 2 x2 * x7 + x7^2 + x20^2 - 2 x20 * x25 + x25^2 ] <= 4
 e45: [ x2^2 - 2 x2 * x8 + x8^2 + x20^2 - 2 x20 * x26 + x26^2 ] <= 4
 e46: [ x2^2 - 2 x2 * x9 + x9^2 + x20^2 - 2 x20 * x27 + x27^2 ] <= 4
 e47: [ x2^2 - 2 x2 * x10 + x10^2 + x20^2 - 2 x20 * x28 + x28^2 ] <= 4
 e48: [ x2^2 - 2 x2 * x11 + x11^2 + x20^2 - 2 x20 * x29 + x29^2 ] <= 4
 e49: [ x2^2 - 2 x2 * x12 + x12^2 + x20^2 - 2 x20 * x30 + x30^2 ] <= 4
 e50: [ x2^2 - 2 x2 * x13 + x13^2 + x20^2 - 2 x20 * x31 + x31^2 ] <= 4
 e51: [ x2^2 - 2 x2 * x14 + x14^2 + x20^2 - 2 x20 * x32 + x32^2 ] <= 4
 e52: [ x2^2 - 2 x2 * x15 + x15^2 + x20^2 - 2 x20 * x33 + x33^2 ] <= 4
 e53: [ x2^2 - 2 x2 * x16 + x16^2 + x20^2 - 2 x20 * x34 + x34^2 ] <= 4
 e54: [ x2^2 - 2 x2 * x17 + x17^2 + x20^2 - 2 x20 * x35 + x35^2 ] <= 4
 e55: [ x2^2 - 2 x2 * x18 + x18^2 + x20^2 - 2 x20 * x36 + x36^2 ] <= 4
 e56: [ x2^2 - 2 x2 * x39 + x20^2 - 2 x20 * x37 + x37^2 + x39^2 ] <= 4
 e57: [ x3^2 - 2 x3 * x4 + x4^2 + x21^2 - 2 x21 * x22 + x22^2 ] <= 4
 e58: [ x3^2 - 2 x3 * x5 + x5^2 + x21^2 - 2 x21 * x23 + x23^2 ] <= 4
 e59: [ x3^2 - 2 x3 * x6 + x6^2 + x21^2 - 2 x21 * x24 + x24^2 ] <= 4
 e60: [ x3^2 - 2 x3 * x7 + x7^2 + x21^2 - 2 x21 * x25 + x25^2 ] <= 4
 e61: [ x3^2 - 2 x3 * x8 + x8^2 + x21^2 - 2 x21 * x26 + x26^2 ] <= 4
 e62: [ x3^2 - 2 x3 * x9 + x9^2 + x21^2 - 2 x21 * x27 + x27^2 ] <= 4
 e63: [ x3^2 - 2 x3 * x10 + x10^2 + x21^2 - 2 x21 * x28 + x28^2 ] <= 4
 e64: [ x3^2 - 2 x3 * x11 + x11^2 + x21^2 - 2 x21 * x29 + x29^2 ] <= 4
 e65: [ x3^2 - 2 x3 * x12 + x12^2 + x21^2 - 2 x21 * x30 + x30^2 ] <= 4
 e66: [ x3^2 - 2 x3 * x13 + x13^2 + x21^2 - 2 x21 * x31 + x31^2 ] <= 4
 e67: [ x3^2 - 2 x3 * x14 + x14^2 + x21^2 - 2 x21 * x32 + x32^2 ] <= 4
 e68: [ x3^2 - 2 x3 * x15 + x15^2 + x21^2 - 2 x21 * x33 + x33^2 ] <= 4
 e69: [ x3^2 - 2 x3 * x16 + x16^2 + x21^2 - 2 x21 * x34 + x34^2 ] <= 4
 e70: [ x3^2 - 2 x3 * x17 + x17^2 + x21^2 - 2 x21 * x35 + x35^2 ] <= 4
 e71: [ x3^2 - 2 x3 * x18 + x18^2 + x21^2 - 2 x21 * x36 + x36^2 ] <= 4
 e72: [ x3^2 - 2 x3 * x39 + x21^2 - 2 x21 * x37 + x37^2 + x39^2 ] <= 4
 e73: [ x4^2 - 2 x4 * x5 + x5^2 + x22^2 - 2 x22 * x23 + x23^2 ] <= 4
 e74: [ x4^2 - 2 x4 * x6 + x6^2 + x22^2 - 2 x22 * x24 + x24^2 ] <= 4
 e75: [ x4^2 - 2 x4 * x7 + x7^2 + x22^2 - 2 x22 * x25 + x25^2 ] <= 4
 e76: [ x4^2 - 2 x4 * x8 + x8^2 + x22^2 - 2 x22 * x26 + x26^2 ] <= 4
 e77: [ x4^2 - 2 x4 * x9 + x9^2 + x22^2 - 2 x22 * x27 + x27^2 ] <= 4
 e78: [ x4^2 - 2 x4 * x10 + x10^2 + x22^2 - 2 x22 * x28 + x28^2 ] <= 4
 e79: [ x4^2 - 2 x4 * x11 + x11^2 + x22^2 - 2 x22 * x29 + x29^2 ] <= 4
 e80: [ x4^2 - 2 x4 * x12 + x12^2 + x22^2 - 2 x22 * x30 + x30^2 ] <= 4
 e81: [ x4^2 - 2 x4 * x13 + x13^2 + x22^2 - 2 x22 * x31 + x31^2 ] <= 4
 e82: [ x4^2 - 2 x4 * x14 + x14^2 + x22^2 - 2 x22 * x32 + x32^2 ] <= 4
 e83: [ x4^2 - 2 x4 * x15 + x15^2 + x22^2 - 2 x22 * x33 + x33^2 ] <= 4
 e84: [ x4^2 - 2 x4 * x16 + x16^2 + x22^2 - 2 x22 * x34 + x34^2 ] <= 4
 e85: [ x4^2 - 2 x4 * x17 + x17^2 + x22^2 - 2 x22 * x35 + x35^2 ] <= 4
 e86: [ x4^2 - 2 x4 * x18 + x18^2 + x22^2 - 2 x22 * x36 + x36^2 ] <= 4
 e87: [ x4^2 - 2 x4 * x39 + x22^2 - 2 x22 * x37 + x37^2 + x39^2 ] <= 4
 e88: [ x5^2 - 2 x5 * x6 + x6^2 + x23^2 - 2 x23 * x24 + x24^2 ] <= 4
 e89: [ x5^2 - 2 x5 * x7 + x7^2 + x23^2 - 2 x23 * x25 + x25^2 ] <= 4
 e90: [ x5^2 - 2 x5 * x8 + x8^2 + x23^2 - 2 x23 * x26 + x26^2 ] <= 4
 e91: [ x5^2 - 2 x5 * x9 + x9^2 + x23^2 - 2 x23 * x27 + x27^2 ] <= 4
 e92: [ x5^2 - 2 x5 * x10 + x10^2 + x23^2 - 2 x23 * x28 + x28^2 ] <= 4
 e93: [ x5^2 - 2 x5 * x11 + x11^2 + x23^2 - 2 x23 * x29 + x29^2 ] <= 4
 e94: [ x5^2 - 2 x5 * x12 + x12^2 + x23^2 - 2 x23 * x30 + x30^2 ] <= 4
 e95: [ x5^2 - 2 x5 * x13 + x13^2 + x23^2 - 2 x23 * x31 + x31^2 ] <= 4
 e96: [ x5^2 - 2 x5 * x14 + x14^2 + x23^2 - 2 x23 * x32 + x32^2 ] <= 4
 e97: [ x5^2 - 2 x5 * x15 + x15^2 + x23^2 - 2 x23 * x33 + x33^2 ] <= 4
 e98: [ x5^2 - 2 x5 * x16 + x16^2 + x23^2 - 2 x23 * x34 + x34^2 ] <= 4
 e99: [ x5^2 - 2 x5 * x17 + x17^2 + x23^2 - 2 x23 * x35 + x35^2 ] <= 4
 e100: [ x5^2 - 2 x5 * x18 + x18^2 + x23^2 - 2 x23 * x36 + x36^2 ] <= 4
 e101: [ x5^2 - 2 x5 * x39 + x23^2 - 2 x23 * x37 + x37^2 + x39^2 ] <= 4
 e102: [ x6^2 - 2 x6 * x7 + x7^2 + x24^2 - 2 x24 * x25 + x25^2 ] <= 4
 e103: [ x6^2 - 2 x6 * x8 + x8^2 + x24^2 - 2 x24 * x26 + x26^2 ] <= 4
 e104: [ x6^2 - 2 x6 * x9 + x9^2 + x24^2 - 2 x24 * x27 + x27^2 ] <= 4
 e105: [ x6^2 - 2 x6 * x10 + x10^2 + x24^2 - 2 x24 * x28 + x28^2 ] <= 4
 e106: [ x6^2 - 2 x6 * x11 + x11^2 + x24^2 - 2 x24 * x29 + x29^2 ] <= 4
 e107: [ x6^2 - 2 x6 * x12 + x12^2 + x24^2 - 2 x24 * x30 + x30^2 ] <= 4
 e108: [ x6^2 - 2 x6 * x13 + x13^2 + x24^2 - 2 x24 * x31 + x31^2 ] <= 4
 e109: [ x6^2 - 2 x6 * x14 + x14^2 + x24^2 - 2 x24 * x32 + x32^2 ] <= 4
 e110: [ x6^2 - 2 x6 * x15 + x15^2 + x24^2 - 2 x24 * x33 + x33^2 ] <= 4
 e111: [ x6^2 - 2 x6 * x16 + x16^2 + x24^2 - 2 x24 * x34 + x34^2 ] <= 4
 e112: [ x6^2 - 2 x6 * x17 + x17^2 + x24^2 - 2 x24 * x35 + x35^2 ] <= 4
 e113: [ x6^2 - 2 x6 * x18 + x18^2 + x24^2 - 2 x24 * x36 + x36^2 ] <= 4
 e114: [ x6^2 - 2 x6 * x39 + x24^2 - 2 x24 * x37 + x37^2 + x39^2 ] <= 4
 e115: [ x7^2 - 2 x7 * x8 + x8^2 + x25^2 - 2 x25 * x26 + x26^2 ] <= 4
 e116: [ x7^2 - 2 x7 * x9 + x9^2 + x25^2 - 2 x25 * x27 + x27^2 ] <= 4
 e117: [ x7^2 - 2 x7 * x10 + x10^2 + x25^2 - 2 x25 * x28 + x28^2 ] <= 4
 e118: [ x7^2 - 2 x7 * x11 + x11^2 + x25^2 - 2 x25 * x29 + x29^2 ] <= 4
 e119: [ x7^2 - 2 x7 * x12 + x12^2 + x25^2 - 2 x25 * x30 + x30^2 ] <= 4
 e120: [ x7^2 - 2 x7 * x13 + x13^2 + x25^2 - 2 x25 * x31 + x31^2 ] <= 4
 e121: [ x7^2 - 2 x7 * x14 + x14^2 + x25^2 - 2 x25 * x32 + x32^2 ] <= 4
 e122: [ x7^2 - 2 x7 * x15 + x15^2 + x25^2 - 2 x25 * x33 + x33^2 ] <= 4
 e123: [ x7^2 - 2 x7 * x16 + x16^2 + x25^2 - 2 x25 * x34 + x34^2 ] <= 4
 e124: [ x7^2 - 2 x7 * x17 + x17^2 + x25^2 - 2 x25 * x35 + x35^2 ] <= 4
 e125: [ x7^2 - 2 x7 * x18 + x18^2 + x25^2 - 2 x25 * x36 + x36^2 ] <= 4
 e126: [ x7^2 - 2 x7 * x39 + x25^2 - 2 x25 * x37 + x37^2 + x39^2 ] <= 4
 e127: [ x8^2 - 2 x8 * x9 + x9^2 + x26^2 - 2 x26 * x27 + x27^2 ] <= 4
 e128: [ x8^2 - 2 x8 * x10 + x10^2 + x26^2 - 2 x26 * x28 + x28^2 ] <= 4
 e129: [ x8^2 - 2 x8 * x11 + x11^2 + x26^2 - 2 x26 * x29 + x29^2 ] <= 4
 e130: [ x8^2 - 2 x8 * x12 + x12^2 + x26^2 - 2 x26 * x30 + x30^2 ] <= 4
 e131: [ x8^2 - 2 x8 * x13 + x13^2 + x26^2 - 2 x26 * x31 + x31^2 ] <= 4
 e132: [ x8^2 - 2 x8 * x14 + x14^2 + x26^2 - 2 x26 * x32 + x32^2 ] <= 4
 e133: [ x8^2 - 2 x8 * x15 + x15^2 + x26^2 - 2 x26 * x33 + x33^2 ] <= 4
 e134: [ x8^2 - 2 x8 * x16 + x16^2 + x26^2 - 2 x26 * x34 + x34^2 ] <= 4
 e135: [ x8^2 - 2 x8 * x17 + x17^2 + x26^2 - 2 x26 * x35 + x35^2 ] <= 4
 e136: [ x8^2 - 2 x8 * x18 + x18^2 + x26^2 - 2 x26 * x36 + x36^2 ] <= 4
 e137: [ x8^2 - 2 x8 * x39 + x26^2 - 2 x26 * x37 + x37^2 + x39^2 ] <= 4
 e138: [ x9^2 - 2 x9 * x10 + x10^2 + x27^2 - 2 x27 * x28 + x28^2 ] <= 4
 e139: [ x9^2 - 2 x9 * x11 + x11^2 + x27^2 - 2 x27 * x29 + x29^2 ] <= 4
 e140: [ x9^2 - 2 x9 * x12 + x12^2 + x27^2 - 2 x27 * x30 + x30^2 ] <= 4
 e141: [ x9^2 - 2 x9 * x13 + x13^2 + x27^2 - 2 x27 * x31 + x31^2 ] <= 4
 e142: [ x9^2 - 2 x9 * x14 + x14^2 + x27^2 - 2 x27 * x32 + x32^2 ] <= 4
 e143: [ x9^2 - 2 x9 * x15 + x15^2 + x27^2 - 2 x27 * x33 + x33^2 ] <= 4
 e144: [ x9^2 - 2 x9 * x16 + x16^2 + x27^2 - 2 x27 * x34 + x34^2 ] <= 4
 e145: [ x9^2 - 2 x9 * x17 + x17^2 + x27^2 - 2 x27 * x35 + x35^2 ] <= 4
 e146: [ x9^2 - 2 x9 * x18 + x18^2 + x27^2 - 2 x27 * x36 + x36^2 ] <= 4
 e147: [ x9^2 - 2 x9 * x39 + x27^2 - 2 x27 * x37 + x37^2 + x39^2 ] <= 4
 e148: [ x10^2 - 2 x10 * x11 + x11^2 + x28^2 - 2 x28 * x29 + x29^2 ] <= 4
 e149: [ x10^2 - 2 x10 * x12 + x12^2 + x28^2 - 2 x28 * x30 + x30^2 ] <= 4
 e150: [ x10^2 - 2 x10 * x13 + x13^2 + x28^2 - 2 x28 * x31 + x31^2 ] <= 4
 e151: [ x10^2 - 2 x10 * x14 + x14^2 + x28^2 - 2 x28 * x32 + x32^2 ] <= 4
 e152: [ x10^2 - 2 x10 * x15 + x15^2 + x28^2 - 2 x28 * x33 + x33^2 ] <= 4
 e153: [ x10^2 - 2 x10 * x16 + x16^2 + x28^2 - 2 x28 * x34 + x34^2 ] <= 4
 e154: [ x10^2 - 2 x10 * x17 + x17^2 + x28^2 - 2 x28 * x35 + x35^2 ] <= 4
 e155: [ x10^2 - 2 x10 * x18 + x18^2 + x28^2 - 2 x28 * x36 + x36^2 ] <= 4
 e156: [ x10^2 - 2 x10 * x39 + x28^2 - 2 x28 * x37 + x37^2 + x39^2 ] <= 4
 e157: [ x11^2 - 2 x11 * x12 + x12^2 + x29^2 - 2 x29 * x30 + x30^2 ] <= 4
 e158: [ x11^2 - 2 x11 * x13 + x13^2 + x29^2 - 2 x29 * x31 + x31^2 ] <= 4
 e159: [ x11^2 - 2 x11 * x14 + x14^2 + x29^2 - 2 x29 * x32 + x32^2 ] <= 4
 e160: [ x11^2 - 2 x11 * x15 + x15^2 + x29^2 - 2 x29 * x33 + x33^2 ] <= 4
 e161: [ x11^2 - 2 x11 * x16 + x16^2 + x29^2 - 2 x29 * x34 + x34^2 ] <= 4
 e162: [ x11^2 - 2 x11 * x17 + x17^2 + x29^2 - 2 x29 * x35 + x35^2 ] <= 4
 e163: [ x11^2 - 2 x11 * x18 + x18^2 + x29^2 - 2 x29 * x36 + x36^2 ] <= 4
 e164: [ x11^2 - 2 x11 * x39 + x29^2 - 2 x29 * x37 + x37^2 + x39^2 ] <= 4
 e165: [ x12^2 - 2 x12 * x13 + x13^2 + x30^2 - 2 x30 * x31 + x31^2 ] <= 4
 e166: [ x12^2 - 2 x12 * x14 + x14^2 + x30^2 - 2 x30 * x32 + x32^2 ] <= 4
 e167: [ x12^2 - 2 x12 * x15 + x15^2 + x30^2 - 2 x30 * x33 + x33^2 ] <= 4
 e168: [ x12^2 - 2 x12 * x16 + x16^2 + x30^2 - 2 x30 * x34 + x34^2 ] <= 4
 e169: [ x12^2 - 2 x12 * x17 + x17^2 + x30^2 - 2 x30 * x35 + x35^2 ] <= 4
 e170: [ x12^2 - 2 x12 * x18 + x18^2 + x30^2 - 2 x30 * x36 + x36^2 ] <= 4
 e171: [ x12^2 - 2 x12 * x39 + x30^2 - 2 x30 * x37 + x37^2 + x39^2 ] <= 4
 e172: [ x13^2 - 2 x13 * x14 + x14^2 + x31^2 - 2 x31 * x32 + x32^2 ] <= 4
 e173: [ x13^2 - 2 x13 * x15 + x15^2 + x31^2 - 2 x31 * x33 + x33^2 ] <= 4
 e174: [ x13^2 - 2 x13 * x16 + x16^2 + x31^2 - 2 x31 * x34 + x34^2 ] <= 4
 e175: [ x13^2 - 2 x13 * x17 + x17^2 + x31^2 - 2 x31 * x35 + x35^2 ] <= 4
 e176: [ x13^2 - 2 x13 * x18 + x18^2 + x31^2 - 2 x31 * x36 + x36^2 ] <= 4
 e177: [ x13^2 - 2 x13 * x39 + x31^2 - 2 x31 * x37 + x37^2 + x39^2 ] <= 4
 e178: [ x14^2 - 2 x14 * x15 + x15^2 + x32^2 - 2 x32 * x33 + x33^2 ] <= 4
 e179: [ x14^2 - 2 x14 * x16 + x16^2 + x32^2 - 2 x32 * x34 + x34^2 ] <= 4
 e180: [ x14^2 - 2 x14 * x17 + x17^2 + x32^2 - 2 x32 * x35 + x35^2 ] <= 4
 e181: [ x14^2 - 2 x14 * x18 + x18^2 + x32^2 - 2 x32 * x36 + x36^2 ] <= 4
 e182: [ x14^2 - 2 x14 * x39 + x32^2 - 2 x32 * x37 + x37^2 + x39^2 ] <= 4
 e183: [ x15^2 - 2 x15 * x16 + x16^2 + x33^2 - 2 x33 * x34 + x34^2 ] <= 4
 e184: [ x15^2 - 2 x15 * x17 + x17^2 + x33^2 - 2 x33 * x35 + x35^2 ] <= 4
 e185: [ x15^2 - 2 x15 * x18 + x18^2 + x33^2 - 2 x33 * x36 + x36^2 ] <= 4
 e186: [ x15^2 - 2 x15 * x39 + x33^2 - 2 x33 * x37 + x37^2 + x39^2 ] <= 4
 e187: [ x16^2 - 2 x16 * x17 + x17^2 + x34^2 - 2 x34 * x35 + x35^2 ] <= 4
 e188: [ x16^2 - 2 x16 * x18 + x18^2 + x34^2 - 2 x34 * x36 + x36^2 ] <= 4
 e189: [ x16^2 - 2 x16 * x39 + x34^2 - 2 x34 * x37 + x37^2 + x39^2 ] <= 4
 e190: [ x17^2 - 2 x17 * x18 + x18^2 + x35^2 - 2 x35 * x36 + x36^2 ] <= 4
 e191: [ x17^2 - 2 x17 * x39 + x35^2 - 2 x35 * x37 + x37^2 + x39^2 ] <= 4
 e192: [ x18^2 - 2 x18 * x39 + x36^2 - 2 x36 * x37 + x37^2 + x39^2 ] <= 4

Bounds
 0.5 <= x2 <= 2.5
 0.5 <= x3 <= 2.5
 0.5 <= x4 <= 2.5
 0.5 <= x5 <= 2.5
 0.5 <= x6 <= 2.5
 0.5 <= x7 <= 2.5
 0.5 <= x8 <= 2.5
 0.5 <= x9 <= 2.5
 0.5 <= x10 <= 2.5
 0.5 <= x11 <= 2.5
 0.5 <= x12 <= 2.5
 0.5 <= x13 <= 2.5
 0.5 <= x14 <= 2.5
 0.5 <= x15 <= 2.5
 0.5 <= x16 <= 2.5
 0.5 <= x17 <= 2.5
 0.5 <= x18 <= 2.5
 x19 Free
 x20 Free
 x21 Free
 x22 Free
 x23 Free
 x24 Free
 x25 Free
 x26 Free
 x27 Free
 x28 Free
 x29 Free
 x30 Free
 x31 Free
 x32 Free
 x33 Free
 x34 Free
 x35 Free
 x36 Free
 x37 Free
 0.5 <= x38 <= 2.5
 0.5 <= x39 <= 2.5

End
