\ Equation counts
\     Total        E        G        L        N        X        C        B
\       128       96       32        0        0        0        0        0
\ 
\ Variable counts
\                  x        b        i      s1s      s2s       sc       si
\     Total     cont   binary  integer     sos1     sos2    scont     sint
\       424      424        0        0        0        0        0        0
\ 
\ Nonzero counts
\     Total    const       NL      DLL
\      2720     1536     1184        0
\ 
Minimize
 obj: x2 + x3 + x4 + x5 + x6 + x7 + x8 + x9 + x10 + x11 + x12 + x13 + x14 + x15 + x16 + x17 + x18 + x19 
  + x20 + x21 + x22 + x23 + x24 + x25 + x26 + x27 + x28 + x29 + x30 + x31 + x32 + x33 + x34 + x35 + x36 
  + x37 + x38 + x39 + x40 + x41 + x42 + x43 + x44 + x45 + x46 + x47 + x48 + x49 + x50 + x51 + x52 + x53 
  + x54 + x55 + x56 + x57 + x58 + x59 + x60 + x61 + x62 + x63 + x64 + x65 + x66 + x67 + x68 + x69 + x70 
  + x71 + x72 + x73 + x74 + x75 + x76 + x77 + x78 + x79 + x80 + x81 + 0 x82 + 0 x83 + 0 x84 + 0 x85 + 0 x86 
  + 0 x87 + 0 x88 + 0 x89 + 0 x90 + 0 x91 + 0 x92 + 0 x93 + 0 x94 + 0 x95 + 0 x96 + 0 x97 + 0 x98 + 0 x99 
  + 0 x100 + 0 x101 + 0 x102 + 0 x103 + 0 x104 + 0 x105 + 0 x106 + 0 x107 + 0 x108 + 0 x109 + 0 x110 
  + 0 x111 + 0 x112 + 0 x113 + 0 x114 + 0 x115 + 0 x116 + 0 x117 + 0 x118 + 0 x119 + 0 x120 + 0 x121 
  + 0 x122 + 0 x123 + 0 x124 + 0 x125 + 0 x126 + 0 x127 + 0 x128 + 0 x129 + 0 x130 + 0 x131 + 0 x132 
  + 0 x133 + 0 x134 + 0 x135 + 0 x136 + 0 x137 + 0 x138 + 0 x139 + 0 x140 + 0 x141 + 0 x142 + 0 x143 
  + 0 x144 + 0 x145 + 0 x146 + 0 x147 + 0 x148 + 0 x149 + 0 x150 + 0 x151 + 0 x152 + 0 x153 + 0 x154 
  + 0 x155 + 0 x156 + 0 x157 + 0 x158 + 0 x159 + 0 x160 + 0 x161 + 0 x162 + 0 x163 + 0 x164 + 0 x165 
  + 0 x166 + 0 x167 + 0 x168 + 0 x169 + 0 x170 + 0 x171 + 0 x172 + 0 x173 + 0 x174 + 0 x175 + 0 x176 
  + 0 x177 + 0 x178 + 0 x179 + 0 x180 + 0 x181 + 0 x182 + 0 x183 + 0 x184 + 0 x185 + 0 x186 + 0 x187 
  + 0 x188 + 0 x189 + 0 x190 + 0 x191 + 0 x192 + 0 x193 + 0 x194 + 0 x195 + 0 x196 + 0 x197 + 0 x198 
  + 0 x199 + 0 x200 + 0 x201 + 0 x202 + 0 x203 + 0 x204 + 0 x205 + 0 x206 + 0 x207 + 0 x208 + 0 x209 
  + 0 x210 + 0 x211 + 0 x212 + 0 x213 + 0 x214 + 0 x215 + 0 x216 + 0 x217 + 0 x218 + 0 x219 + 0 x220 
  + 0 x221 + 0 x222 + 0 x223 + 0 x224 + 0 x225 + 0 x226 + 0 x227 + 0 x228 + 0 x229 + 0 x230 + 0 x231 
  + 0 x232 + 0 x233 + 0 x234 + 0 x235 + 0 x236 + 0 x237 + 0 x238 + 0 x239 + 0 x240 + 0 x241 + 0 x242 
  + 0 x243 + 0 x244 + 0 x245 + 0 x246 + 0 x247 + 0 x248 + 0 x249 + 0 x250 + 0 x251 + 0 x252 + 0 x253 
  + 0 x254 + 0 x255 + 0 x256 + 0 x257 + 0 x258 + 0 x259 + 0 x260 + 0 x261 + 0 x262 + 0 x263 + 0 x264 
  + 0 x265 + 0 x266 + 0 x267 + 0 x268 + 0 x269 + 0 x270 + 0 x271 + 0 x272 + 0 x273 + 0 x274 + 0 x275 
  + 0 x276 + 0 x277 + 0 x278 + 0 x279 + 0 x280 + 0 x281 + 0 x282 + 0 x283 + 0 x284 + 0 x285 + 0 x286 
  + 0 x287 + 0 x288 + 0 x289 + 0 x290 + 0 x291 + 0 x292 + 0 x293 + 0 x294 + 0 x295 + 0 x296 + 0 x297 
  + 0 x298 + 0 x299 + 0 x300 + 0 x301 + 0 x302 + 0 x303 + 0 x304 + 0 x305 + 0 x306 + 0 x307 + 0 x308 
  + 0 x309 + 0 x310 + 0 x311 + 0 x312 + 0 x313 + 0 x314 + 0 x315 + 0 x316 + 0 x317 + 0 x318 + 0 x319 
  + 0 x320 + 0 x321 + 0 x322 + 0 x323 + 0 x324 + 0 x325 + 0 x326 + 0 x327 + 0 x328 + 0 x329 + 0 x330 
  + 0 x331 + 0 x332 + 0 x333 + 0 x334 + 0 x335 + 0 x336 + 0 x337 + 0 x338 + 0 x339 + 0 x340 + 0 x341 
  + 0 x342 + 0 x343 + 0 x344 + 0 x345 + 0 x346 + 0 x347 + 0 x348 + 0 x349 + 0 x350 + 0 x351 + 0 x352 
  + 0 x353 + 0 x354 + 0 x355 + 0 x356 + 0 x357 + 0 x358 + 0 x359 + 0 x360 + 0 x361 + 0 x362 + 0 x363 
  + 0 x364 + 0 x365 + 0 x366 + 0 x367 + 0 x368 + 0 x369 + 0 x370 + 0 x371 + 0 x372 + 0 x373 + 0 x374 
  + 0 x375 + 0 x376 + 0 x377 + 0 x378 + 0 x379 + 0 x380 + 0 x381 + 0 x382 + 0 x383 + 0 x384 + 0 x385 
  + 0 x386 + 0 x387 + 0 x388 + 0 x389 + 0 x390 + 0 x391 + 0 x392 + 0 x393 + 0 x394 + 0 x395 + 0 x396 
  + 0 x397 + 0 x398 + 0 x399 + 0 x400 + 0 x401 + 0 x402 + 0 x403 + 0 x404 + 0 x405 + 0 x406 + 0 x407 
  + 0 x408 + 0 x409 + 0 x410 + 0 x411 + 0 x412 + 0 x413 + 0 x414 + 0 x415 + 0 x416 + 0 x417 + 0 x418 
  + 0 x419 + 0 x420 + 0 x421 + 0 x422 + 0 x423 + 0 x424 + 0 x425

Subject To
 e2: - x2 - x18 - x34 - x50 - x66 + x146 - x147 - x148 - x149 - x150 - x151 - x152 - x153 - x154 - x155 
  - x156 - x157 - x158 - x159 - x160 - x161 - x162 = 0
 e3: - x3 - x19 - x35 - x51 - x67 + x163 - x164 - x165 - x166 - x167 - x168 - x169 - x170 - x171 - x172 
  - x173 - x174 - x175 - x176 - x177 - x178 - x179 = 0
 e4: - x4 - x20 - x36 - x52 - x68 + x180 - x181 - x182 - x183 - x184 - x185 - x186 - x187 - x188 - x189 
  - x190 - x191 - x192 - x193 - x194 - x195 - x196 = 0
 e5: - x5 - x21 - x37 - x53 - x69 + x197 - x198 - x199 - x200 - x201 - x202 - x203 - x204 - x205 - x206 
  - x207 - x208 - x209 - x210 - x211 - x212 - x213 = 0
 e6: - x6 - x22 - x38 - x54 - x70 + x214 - x215 - x216 - x217 - x218 - x219 - x220 - x221 - x222 - x223 
  - x224 - x225 - x226 - x227 - x228 - x229 - x230 = 0
 e7: - x7 - x23 - x39 - x55 - x71 + x231 - x232 - x233 - x234 - x235 - x236 - x237 - x238 - x239 - x240 
  - x241 - x242 - x243 - x244 - x245 - x246 - x247 = 0
 e8: - x8 - x24 - x40 - x56 - x72 + x248 - x249 - x250 - x251 - x252 - x253 - x254 - x255 - x256 - x257 
  - x258 - x259 - x260 - x261 - x262 - x263 - x264 = 0
 e9: - x9 - x25 - x41 - x57 - x73 + x265 - x266 - x267 - x268 - x269 - x270 - x271 - x272 - x273 - x274 
  - x275 - x276 - x277 - x278 - x279 - x280 - x281 = 0
 e10: - x10 - x26 - x42 - x58 - x74 - x282 - x283 - x284 - x285 - x286 - x287 - x288 - x289 - x290 - x291 
  - x292 - x293 - x294 - x295 - x296 - x297 = -98
 e11: - x11 - x27 - x43 - x59 - x75 - x298 - x299 - x300 - x301 - x302 - x303 - x304 - x305 - x306 - x307 
  - x308 - x309 - x310 - x311 - x312 - x313 = -75
 e12: - x12 - x28 - x44 - x60 - x76 - x314 - x315 - x316 - x317 - x318 - x319 - x320 - x321 - x322 - x323 
  - x324 - x325 - x326 - x327 - x328 - x329 = -85
 e13: - x13 - x29 - x45 - x61 - x77 - x330 - x331 - x332 - x333 - x334 - x335 - x336 - x337 - x338 - x339 
  - x340 - x341 - x342 - x343 - x344 - x345 = -195
 e14: - x14 - x30 - x46 - x62 - x78 - x346 - x347 - x348 - x349 - x350 - x351 - x352 - x353 - x354 - x355 
  - x356 - x357 - x358 - x359 - x360 - x361 = -60
 e15: - x15 - x31 - x47 - x63 - x79 - x362 - x363 - x364 - x365 - x366 - x367 - x368 - x369 - x370 - x371 
  - x372 - x373 - x374 - x375 - x376 - x377 = -23
 e16: - x16 - x32 - x48 - x64 - x80 - x378 - x379 - x380 - x381 - x382 - x383 - x384 - x385 - x386 - x387 
  - x388 - x389 - x390 - x391 - x392 - x393 = -100
 e17: - x17 - x33 - x49 - x65 - x81 - x394 - x395 - x396 - x397 - x398 - x399 - x400 - x401 - x402 - x403 
  - x404 - x405 - x406 - x407 - x408 - x409 = -45
 e18: x146 - x147 - x164 - x181 - x198 - x215 - x232 - x249 - x266 - x282 - x298 - x314 - x330 - x346 
  - x362 - x378 - x394 - x410 = 0
 e19: - x148 + x163 - x165 - x182 - x199 - x216 - x233 - x250 - x267 - x283 - x299 - x315 - x331 - x347 
  - x363 - x379 - x395 - x411 = 0
 e20: - x149 - x166 + x180 - x183 - x200 - x217 - x234 - x251 - x268 - x284 - x300 - x316 - x332 - x348 
  - x364 - x380 - x396 - x412 = 0
 e21: - x150 - x167 - x184 + x197 - x201 - x218 - x235 - x252 - x269 - x285 - x301 - x317 - x333 - x349 
  - x365 - x381 - x397 - x413 = 0
 e22: - x151 - x168 - x185 - x202 + x214 - x219 - x236 - x253 - x270 - x286 - x302 - x318 - x334 - x350 
  - x366 - x382 - x398 - x414 = 0
 e23: - x152 - x169 - x186 - x203 - x220 + x231 - x237 - x254 - x271 - x287 - x303 - x319 - x335 - x351 
  - x367 - x383 - x399 - x415 = 0
 e24: - x153 - x170 - x187 - x204 - x221 - x238 + x248 - x255 - x272 - x288 - x304 - x320 - x336 - x352 
  - x368 - x384 - x400 - x416 = 0
 e25: - x154 - x171 - x188 - x205 - x222 - x239 - x256 + x265 - x273 - x289 - x305 - x321 - x337 - x353 
  - x369 - x385 - x401 - x417 = 0
 e26: - x155 - x172 - x189 - x206 - x223 - x240 - x257 - x274 - x290 - x306 - x322 - x338 - x354 - x370 
  - x386 - x402 - x418 = -58
 e27: - x156 - x173 - x190 - x207 - x224 - x241 - x258 - x275 - x291 - x307 - x323 - x339 - x355 - x371 
  - x387 - x403 - x419 = -115
 e28: - x157 - x174 - x191 - x208 - x225 - x242 - x259 - x276 - x292 - x308 - x324 - x340 - x356 - x372 
  - x388 - x404 - x420 = -85
 e29: - x158 - x175 - x192 - x209 - x226 - x243 - x260 - x277 - x293 - x309 - x325 - x341 - x357 - x373 
  - x389 - x405 - x421 = -200
 e30: - x159 - x176 - x193 - x210 - x227 - x244 - x261 - x278 - x294 - x310 - x326 - x342 - x358 - x374 
  - x390 - x406 - x422 = -40
 e31: - x160 - x177 - x194 - x211 - x228 - x245 - x262 - x279 - x295 - x311 - x327 - x343 - x359 - x375 
  - x391 - x407 - x423 = -45
 e32: - x161 - x178 - x195 - x212 - x229 - x246 - x263 - x280 - x296 - x312 - x328 - x344 - x360 - x376 
  - x392 - x408 - x424 = -120
 e33: - x162 - x179 - x196 - x213 - x230 - x247 - x264 - x281 - x297 - x313 - x329 - x345 - x361 - x377 
  - x393 - x409 - x425 = -75
 e34: - 2 x2 - 7 x18 - 7 x34 - 7 x50 - 6 x66 - 2704 x155 - 2504 x156 - 2966 x157 - 1446 x158 - 2236 x159 
  - 2808 x160 - 1753 x161 - 1379 x162 + [ x82 * x146 - x114 * x147 - x118 * x148 - x122 * x149 - x126 * x150 
  - x130 * x151 - x134 * x152 - x138 * x153 - x142 * x154 ] = 0
 e35: - 9 x2 - 6 x18 - 9 x34 - 9 x50 - 9 x66 - 2282 x155 - 2858 x156 - 2563 x157 - 1730 x158 - 2292 x159 
  - 1630 x160 - 1716 x161 - 2352 x162 + [ x83 * x146 - x115 * x147 - x119 * x148 - x123 * x149 - x127 * x150 
  - x131 * x151 - x135 * x152 - x139 * x153 - x143 * x154 ] = 0
 e36: - 8 x2 - 4 x18 - 7 x34 - 5 x50 - 2 x66 - 2753 x155 - 2823 x156 - 2218 x157 - 2830 x158 - 1911 x159 
  - 2281 x160 - 890 x161 - 2532 x162 + [ x84 * x146 - x116 * x147 - x120 * x148 - x124 * x149 - x128 * x150 
  - x132 * x151 - x136 * x152 - x140 * x153 - x144 * x154 ] = 0
 e37: - x2 - 6 x18 - x34 - x50 - x66 - 716 x155 - 2142 x156 - 2127 x157 - 2558 x158 - 2001 x159 - 1996 x160 
  - 1853 x161 - 626 x162 + [ x85 * x146 - x117 * x147 - x121 * x148 - x125 * x149 - x129 * x150 - x133 * x151 
  - x137 * x152 - x141 * x153 - x145 * x154 ] = 0
 e38: - 2 x3 - 7 x19 - 7 x35 - 7 x51 - 6 x67 - 2704 x172 - 2504 x173 - 2966 x174 - 1446 x175 - 2236 x176 
  - 2808 x177 - 1753 x178 - 1379 x179 + [ x86 * x163 - x114 * x164 - x118 * x165 - x122 * x166 - x126 * x167 
  - x130 * x168 - x134 * x169 - x138 * x170 - x142 * x171 ] = 0
 e39: - 9 x3 - 6 x19 - 9 x35 - 9 x51 - 9 x67 - 2282 x172 - 2858 x173 - 2563 x174 - 1730 x175 - 2292 x176 
  - 1630 x177 - 1716 x178 - 2352 x179 + [ x87 * x163 - x115 * x164 - x119 * x165 - x123 * x166 - x127 * x167 
  - x131 * x168 - x135 * x169 - x139 * x170 - x143 * x171 ] = 0
 e40: - 8 x3 - 4 x19 - 7 x35 - 5 x51 - 2 x67 - 2753 x172 - 2823 x173 - 2218 x174 - 2830 x175 - 1911 x176 
  - 2281 x177 - 890 x178 - 2532 x179 + [ x88 * x163 - x116 * x164 - x120 * x165 - x124 * x166 - x128 * x167 
  - x132 * x168 - x136 * x169 - x140 * x170 - x144 * x171 ] = 0
 e41: - x3 - 6 x19 - x35 - x51 - x67 - 716 x172 - 2142 x173 - 2127 x174 - 2558 x175 - 2001 x176 - 1996 x177 
  - 1853 x178 - 626 x179 + [ x89 * x163 - x117 * x164 - x121 * x165 - x125 * x166 - x129 * x167 - x133 * x168 
  - x137 * x169 - x141 * x170 - x145 * x171 ] = 0
 e42: - 2 x4 - 7 x20 - 7 x36 - 7 x52 - 6 x68 - 2704 x189 - 2504 x190 - 2966 x191 - 1446 x192 - 2236 x193 
  - 2808 x194 - 1753 x195 - 1379 x196 + [ x90 * x180 - x114 * x181 - x118 * x182 - x122 * x183 - x126 * x184 
  - x130 * x185 - x134 * x186 - x138 * x187 - x142 * x188 ] = 0
 e43: - 9 x4 - 6 x20 - 9 x36 - 9 x52 - 9 x68 - 2282 x189 - 2858 x190 - 2563 x191 - 1730 x192 - 2292 x193 
  - 1630 x194 - 1716 x195 - 2352 x196 + [ x91 * x180 - x115 * x181 - x119 * x182 - x123 * x183 - x127 * x184 
  - x131 * x185 - x135 * x186 - x139 * x187 - x143 * x188 ] = 0
 e44: - 8 x4 - 4 x20 - 7 x36 - 5 x52 - 2 x68 - 2753 x189 - 2823 x190 - 2218 x191 - 2830 x192 - 1911 x193 
  - 2281 x194 - 890 x195 - 2532 x196 + [ x92 * x180 - x116 * x181 - x120 * x182 - x124 * x183 - x128 * x184 
  - x132 * x185 - x136 * x186 - x140 * x187 - x144 * x188 ] = 0
 e45: - x4 - 6 x20 - x36 - x52 - x68 - 716 x189 - 2142 x190 - 2127 x191 - 2558 x192 - 2001 x193 - 1996 x194 
  - 1853 x195 - 626 x196 + [ x93 * x180 - x117 * x181 - x121 * x182 - x125 * x183 - x129 * x184 - x133 * x185 
  - x137 * x186 - x141 * x187 - x145 * x188 ] = 0
 e46: - 2 x5 - 7 x21 - 7 x37 - 7 x53 - 6 x69 - 2704 x206 - 2504 x207 - 2966 x208 - 1446 x209 - 2236 x210 
  - 2808 x211 - 1753 x212 - 1379 x213 + [ x94 * x197 - x114 * x198 - x118 * x199 - x122 * x200 - x126 * x201 
  - x130 * x202 - x134 * x203 - x138 * x204 - x142 * x205 ] = 0
 e47: - 9 x5 - 6 x21 - 9 x37 - 9 x53 - 9 x69 - 2282 x206 - 2858 x207 - 2563 x208 - 1730 x209 - 2292 x210 
  - 1630 x211 - 1716 x212 - 2352 x213 + [ x95 * x197 - x115 * x198 - x119 * x199 - x123 * x200 - x127 * x201 
  - x131 * x202 - x135 * x203 - x139 * x204 - x143 * x205 ] = 0
 e48: - 8 x5 - 4 x21 - 7 x37 - 5 x53 - 2 x69 - 2753 x206 - 2823 x207 - 2218 x208 - 2830 x209 - 1911 x210 
  - 2281 x211 - 890 x212 - 2532 x213 + [ x96 * x197 - x116 * x198 - x120 * x199 - x124 * x200 - x128 * x201 
  - x132 * x202 - x136 * x203 - x140 * x204 - x144 * x205 ] = 0
 e49: - x5 - 6 x21 - x37 - x53 - x69 - 716 x206 - 2142 x207 - 2127 x208 - 2558 x209 - 2001 x210 - 1996 x211 
  - 1853 x212 - 626 x213 + [ x97 * x197 - x117 * x198 - x121 * x199 - x125 * x200 - x129 * x201 - x133 * x202 
  - x137 * x203 - x141 * x204 - x145 * x205 ] = 0
 e50: - 2 x6 - 7 x22 - 7 x38 - 7 x54 - 6 x70 - 2704 x223 - 2504 x224 - 2966 x225 - 1446 x226 - 2236 x227 
  - 2808 x228 - 1753 x229 - 1379 x230 + [ x98 * x214 - x114 * x215 - x118 * x216 - x122 * x217 - x126 * x218 
  - x130 * x219 - x134 * x220 - x138 * x221 - x142 * x222 ] = 0
 e51: - 9 x6 - 6 x22 - 9 x38 - 9 x54 - 9 x70 - 2282 x223 - 2858 x224 - 2563 x225 - 1730 x226 - 2292 x227 
  - 1630 x228 - 1716 x229 - 2352 x230 + [ x99 * x214 - x115 * x215 - x119 * x216 - x123 * x217 - x127 * x218 
  - x131 * x219 - x135 * x220 - x139 * x221 - x143 * x222 ] = 0
 e52: - 8 x6 - 4 x22 - 7 x38 - 5 x54 - 2 x70 - 2753 x223 - 2823 x224 - 2218 x225 - 2830 x226 - 1911 x227 
  - 2281 x228 - 890 x229 - 2532 x230 + [ x100 * x214 - x116 * x215 - x120 * x216 - x124 * x217 - x128 * x218 
  - x132 * x219 - x136 * x220 - x140 * x221 - x144 * x222 ] = 0
 e53: - x6 - 6 x22 - x38 - x54 - x70 - 716 x223 - 2142 x224 - 2127 x225 - 2558 x226 - 2001 x227 - 1996 x228 
  - 1853 x229 - 626 x230 + [ x101 * x214 - x117 * x215 - x121 * x216 - x125 * x217 - x129 * x218 - x133 * x219 
  - x137 * x220 - x141 * x221 - x145 * x222 ] = 0
 e54: - 2 x7 - 7 x23 - 7 x39 - 7 x55 - 6 x71 - 2704 x240 - 2504 x241 - 2966 x242 - 1446 x243 - 2236 x244 
  - 2808 x245 - 1753 x246 - 1379 x247 + [ x102 * x231 - x114 * x232 - x118 * x233 - x122 * x234 - x126 * x235 
  - x130 * x236 - x134 * x237 - x138 * x238 - x142 * x239 ] = 0
 e55: - 9 x7 - 6 x23 - 9 x39 - 9 x55 - 9 x71 - 2282 x240 - 2858 x241 - 2563 x242 - 1730 x243 - 2292 x244 
  - 1630 x245 - 1716 x246 - 2352 x247 + [ x103 * x231 - x115 * x232 - x119 * x233 - x123 * x234 - x127 * x235 
  - x131 * x236 - x135 * x237 - x139 * x238 - x143 * x239 ] = 0
 e56: - 8 x7 - 4 x23 - 7 x39 - 5 x55 - 2 x71 - 2753 x240 - 2823 x241 - 2218 x242 - 2830 x243 - 1911 x244 
  - 2281 x245 - 890 x246 - 2532 x247 + [ x104 * x231 - x116 * x232 - x120 * x233 - x124 * x234 - x128 * x235 
  - x132 * x236 - x136 * x237 - x140 * x238 - x144 * x239 ] = 0
 e57: - x7 - 6 x23 - x39 - x55 - x71 - 716 x240 - 2142 x241 - 2127 x242 - 2558 x243 - 2001 x244 - 1996 x245 
  - 1853 x246 - 626 x247 + [ x105 * x231 - x117 * x232 - x121 * x233 - x125 * x234 - x129 * x235 - x133 * x236 
  - x137 * x237 - x141 * x238 - x145 * x239 ] = 0
 e58: - 2 x8 - 7 x24 - 7 x40 - 7 x56 - 6 x72 - 2704 x257 - 2504 x258 - 2966 x259 - 1446 x260 - 2236 x261 
  - 2808 x262 - 1753 x263 - 1379 x264 + [ x106 * x248 - x114 * x249 - x118 * x250 - x122 * x251 - x126 * x252 
  - x130 * x253 - x134 * x254 - x138 * x255 - x142 * x256 ] = 0
 e59: - 9 x8 - 6 x24 - 9 x40 - 9 x56 - 9 x72 - 2282 x257 - 2858 x258 - 2563 x259 - 1730 x260 - 2292 x261 
  - 1630 x262 - 1716 x263 - 2352 x264 + [ x107 * x248 - x115 * x249 - x119 * x250 - x123 * x251 - x127 * x252 
  - x131 * x253 - x135 * x254 - x139 * x255 - x143 * x256 ] = 0
 e60: - 8 x8 - 4 x24 - 7 x40 - 5 x56 - 2 x72 - 2753 x257 - 2823 x258 - 2218 x259 - 2830 x260 - 1911 x261 
  - 2281 x262 - 890 x263 - 2532 x264 + [ x108 * x248 - x116 * x249 - x120 * x250 - x124 * x251 - x128 * x252 
  - x132 * x253 - x136 * x254 - x140 * x255 - x144 * x256 ] = 0
 e61: - x8 - 6 x24 - x40 - x56 - x72 - 716 x257 - 2142 x258 - 2127 x259 - 2558 x260 - 2001 x261 - 1996 x262 
  - 1853 x263 - 626 x264 + [ x109 * x248 - x117 * x249 - x121 * x250 - x125 * x251 - x129 * x252 - x133 * x253 
  - x137 * x254 - x141 * x255 - x145 * x256 ] = 0
 e62: - 2 x9 - 7 x25 - 7 x41 - 7 x57 - 6 x73 - 2704 x274 - 2504 x275 - 2966 x276 - 1446 x277 - 2236 x278 
  - 2808 x279 - 1753 x280 - 1379 x281 + [ x110 * x265 - x114 * x266 - x118 * x267 - x122 * x268 - x126 * x269 
  - x130 * x270 - x134 * x271 - x138 * x272 - x142 * x273 ] = 0
 e63: - 9 x9 - 6 x25 - 9 x41 - 9 x57 - 9 x73 - 2282 x274 - 2858 x275 - 2563 x276 - 1730 x277 - 2292 x278 
  - 1630 x279 - 1716 x280 - 2352 x281 + [ x111 * x265 - x115 * x266 - x119 * x267 - x123 * x268 - x127 * x269 
  - x131 * x270 - x135 * x271 - x139 * x272 - x143 * x273 ] = 0
 e64: - 8 x9 - 4 x25 - 7 x41 - 5 x57 - 2 x73 - 2753 x274 - 2823 x275 - 2218 x276 - 2830 x277 - 1911 x278 
  - 2281 x279 - 890 x280 - 2532 x281 + [ x112 * x265 - x116 * x266 - x120 * x267 - x124 * x268 - x128 * x269 
  - x132 * x270 - x136 * x271 - x140 * x272 - x144 * x273 ] = 0
 e65: - x9 - 6 x25 - x41 - x57 - x73 - 716 x274 - 2142 x275 - 2127 x276 - 2558 x277 - 2001 x278 - 1996 x279 
  - 1853 x280 - 626 x281 + [ x113 * x265 - x117 * x266 - x121 * x267 - x125 * x268 - x129 * x269 - x133 * x270 
  - x137 * x271 - x141 * x272 - x145 * x273 ] = 0
 e66: - 2 x10 - 7 x26 - 7 x42 - 7 x58 - 6 x74 - 2704 x290 - 2504 x291 - 2966 x292 - 1446 x293 - 2236 x294 
  - 2808 x295 - 1753 x296 - 1379 x297 + [ - x114 * x282 - x118 * x283 - x122 * x284 - x126 * x285 - x130 * x286 
  - x134 * x287 - x138 * x288 - x142 * x289 ] >= -41846
 e67: - 9 x10 - 6 x26 - 9 x42 - 9 x58 - 9 x74 - 2282 x290 - 2858 x291 - 2563 x292 - 1730 x293 - 2292 x294 
  - 1630 x295 - 1716 x296 - 2352 x297 + [ - x115 * x282 - x119 * x283 - x123 * x284 - x127 * x285 - x131 * x286 
  - x135 * x287 - x139 * x288 - x143 * x289 ] >= -204526
 e68: - 8 x10 - 4 x26 - 7 x42 - 5 x58 - 2 x74 - 2753 x290 - 2823 x291 - 2218 x292 - 2830 x293 - 1911 x294 
  - 2281 x295 - 890 x296 - 2532 x297 + [ - x116 * x282 - x120 * x283 - x124 * x284 - x128 * x285 - x132 * x286 
  - x136 * x287 - x140 * x288 - x144 * x289 ] >= -172382
 e69: - x10 - 6 x26 - x42 - x58 - x74 - 716 x290 - 2142 x291 - 2127 x292 - 2558 x293 - 2001 x294 - 1996 x295 
  - 1853 x296 - 626 x297 + [ - x117 * x282 - x121 * x283 - x125 * x284 - x129 * x285 - x133 * x286 - x137 * x287 
  - x141 * x288 - x145 * x289 ] >= -47236
 e70: - 2 x11 - 7 x27 - 7 x43 - 7 x59 - 6 x75 - 2704 x306 - 2504 x307 - 2966 x308 - 1446 x309 - 2236 x310 
  - 2808 x311 - 1753 x312 - 1379 x313 + [ - x114 * x298 - x118 * x299 - x122 * x300 - x126 * x301 - x130 * x302 
  - x134 * x303 - x138 * x304 - x142 * x305 ] >= -156450
 e71: - 9 x11 - 6 x27 - 9 x43 - 9 x59 - 9 x75 - 2282 x306 - 2858 x307 - 2563 x308 - 1730 x309 - 2292 x310 
  - 1630 x311 - 1716 x312 - 2352 x313 + [ - x115 * x298 - x119 * x299 - x123 * x300 - x127 * x301 - x131 * x302 
  - x135 * x303 - x139 * x304 - x143 * x305 ] >= -139725
 e72: - 8 x11 - 4 x27 - 7 x43 - 5 x59 - 2 x75 - 2753 x306 - 2823 x307 - 2218 x308 - 2830 x309 - 1911 x310 
  - 2281 x311 - 890 x312 - 2532 x313 + [ - x116 * x298 - x120 * x299 - x124 * x300 - x128 * x301 - x132 * x302 
  - x136 * x303 - x140 * x304 - x144 * x305 ] >= -164625
 e73: - x11 - 6 x27 - x43 - x59 - x75 - 716 x306 - 2142 x307 - 2127 x308 - 2558 x309 - 2001 x310 - 1996 x311 
  - 1853 x312 - 626 x313 + [ - x117 * x298 - x121 * x299 - x125 * x300 - x129 * x301 - x133 * x302 - x137 * x303 
  - x141 * x304 - x145 * x305 ] >= -29700
 e74: - 2 x12 - 7 x28 - 7 x44 - 7 x60 - 6 x76 - 2704 x322 - 2504 x323 - 2966 x324 - 1446 x325 - 2236 x326 
  - 2808 x327 - 1753 x328 - 1379 x329 + [ - x114 * x314 - x118 * x315 - x122 * x316 - x126 * x317 - x130 * x318 
  - x134 * x319 - x138 * x320 - x142 * x321 ] >= -171020
 e75: - 9 x12 - 6 x28 - 9 x44 - 9 x60 - 9 x76 - 2282 x322 - 2858 x323 - 2563 x324 - 1730 x325 - 2292 x326 
  - 1630 x327 - 1716 x328 - 2352 x329 + [ - x115 * x314 - x119 * x315 - x123 * x316 - x127 * x317 - x131 * x318 
  - x135 * x319 - x139 * x320 - x143 * x321 ] >= -84490
 e76: - 8 x12 - 4 x28 - 7 x44 - 5 x60 - 2 x76 - 2753 x322 - 2823 x323 - 2218 x324 - 2830 x325 - 1911 x326 
  - 2281 x327 - 890 x328 - 2532 x329 + [ - x116 * x314 - x120 * x315 - x124 * x316 - x128 * x317 - x132 * x318 
  - x136 * x319 - x140 * x320 - x144 * x321 ] >= -163455
 e77: - x12 - 6 x28 - x44 - x60 - x76 - 716 x322 - 2142 x323 - 2127 x324 - 2558 x325 - 2001 x326 - 1996 x327 
  - 1853 x328 - 626 x329 + [ - x117 * x314 - x121 * x315 - x125 * x316 - x129 * x317 - x133 * x318 - x137 * x319 
  - x141 * x320 - x145 * x321 ] >= -176460
 e78: - 2 x13 - 7 x29 - 7 x45 - 7 x61 - 6 x77 - 2704 x338 - 2504 x339 - 2966 x340 - 1446 x341 - 2236 x342 
  - 2808 x343 - 1753 x344 - 1379 x345 + [ - x114 * x330 - x118 * x331 - x122 * x332 - x126 * x333 - x130 * x334 
  - x134 * x335 - x138 * x336 - x142 * x337 ] >= -126165
 e79: - 9 x13 - 6 x29 - 9 x45 - 9 x61 - 9 x77 - 2282 x338 - 2858 x339 - 2563 x340 - 1730 x341 - 2292 x342 
  - 1630 x343 - 1716 x344 - 2352 x345 + [ - x115 * x330 - x119 * x331 - x123 * x332 - x127 * x333 - x131 * x334 
  - x135 * x335 - x139 * x336 - x143 * x337 ] >= -108615
 e80: - 8 x13 - 4 x29 - 7 x45 - 5 x61 - 2 x77 - 2753 x338 - 2823 x339 - 2218 x340 - 2830 x341 - 1911 x342 
  - 2281 x343 - 890 x344 - 2532 x345 + [ - x116 * x330 - x120 * x331 - x124 * x332 - x128 * x333 - x132 * x334 
  - x136 * x335 - x140 * x336 - x144 * x337 ] >= -326625
 e81: - x13 - 6 x29 - x45 - x61 - x77 - 716 x338 - 2142 x339 - 2127 x340 - 2558 x341 - 2001 x342 - 1996 x343 
  - 1853 x344 - 626 x345 + [ - x117 * x330 - x121 * x331 - x125 * x332 - x129 * x333 - x133 * x334 - x137 * x335 
  - x141 * x336 - x145 * x337 ] >= -454350
 e82: - 2 x14 - 7 x30 - 7 x46 - 7 x62 - 6 x78 - 2704 x354 - 2504 x355 - 2966 x356 - 1446 x357 - 2236 x358 
  - 2808 x359 - 1753 x360 - 1379 x361 + [ - x114 * x346 - x118 * x347 - x122 * x348 - x126 * x349 - x130 * x350 
  - x134 * x351 - x138 * x352 - x142 * x353 ] >= -113880
 e83: - 9 x14 - 6 x30 - 9 x46 - 9 x62 - 9 x78 - 2282 x354 - 2858 x355 - 2563 x356 - 1730 x357 - 2292 x358 
  - 1630 x359 - 1716 x360 - 2352 x361 + [ - x115 * x346 - x119 * x347 - x123 * x348 - x127 * x349 - x131 * x350 
  - x135 * x351 - x139 * x352 - x143 * x353 ] >= -31620
 e84: - 8 x14 - 4 x30 - 7 x46 - 5 x62 - 2 x78 - 2753 x354 - 2823 x355 - 2218 x356 - 2830 x357 - 1911 x358 
  - 2281 x359 - 890 x360 - 2532 x361 + [ - x116 * x346 - x120 * x347 - x124 * x348 - x128 * x349 - x132 * x350 
  - x136 * x351 - x140 * x352 - x144 * x353 ] >= -22860
 e85: - x14 - 6 x30 - x46 - x62 - x78 - 716 x354 - 2142 x355 - 2127 x356 - 2558 x357 - 2001 x358 - 1996 x359 
  - 1853 x360 - 626 x361 + [ - x117 * x346 - x121 * x347 - x125 * x348 - x129 * x349 - x133 * x350 - x137 * x351 
  - x141 * x352 - x145 * x353 ] >= -75420
 e86: - 2 x15 - 7 x31 - 7 x47 - 7 x63 - 6 x79 - 2704 x370 - 2504 x371 - 2966 x372 - 1446 x373 - 2236 x374 
  - 2808 x375 - 1753 x376 - 1379 x377 + [ - x114 * x362 - x118 * x363 - x122 * x364 - x126 * x365 - x130 * x366 
  - x134 * x367 - x138 * x368 - x142 * x369 ] >= -39514
 e87: - 9 x15 - 6 x31 - 9 x47 - 9 x63 - 9 x79 - 2282 x370 - 2858 x371 - 2563 x372 - 1730 x373 - 2292 x374 
  - 1630 x375 - 1716 x376 - 2352 x377 + [ - x115 * x362 - x119 * x363 - x123 * x364 - x127 * x365 - x131 * x366 
  - x135 * x367 - x139 * x368 - x143 * x369 ] >= -19734
 e88: - 8 x15 - 4 x31 - 7 x47 - 5 x63 - 2 x79 - 2753 x370 - 2823 x371 - 2218 x372 - 2830 x373 - 1911 x374 
  - 2281 x375 - 890 x376 - 2532 x377 + [ - x116 * x362 - x120 * x363 - x124 * x364 - x128 * x365 - x132 * x366 
  - x136 * x367 - x140 * x368 - x144 * x369 ] >= -7429
 e89: - x15 - 6 x31 - x47 - x63 - x79 - 716 x370 - 2142 x371 - 2127 x372 - 2558 x373 - 2001 x374 - 1996 x375 
  - 1853 x376 - 626 x377 + [ - x117 * x362 - x121 * x363 - x125 * x364 - x129 * x365 - x133 * x366 - x137 * x367 
  - x141 * x368 - x145 * x369 ] >= -4393
 e90: - 2 x16 - 7 x32 - 7 x48 - 7 x64 - 6 x80 - 2704 x386 - 2504 x387 - 2966 x388 - 1446 x389 - 2236 x390 
  - 2808 x391 - 1753 x392 - 1379 x393 + [ - x114 * x378 - x118 * x379 - x122 * x380 - x126 * x381 - x130 * x382 
  - x134 * x383 - x138 * x384 - x142 * x385 ] >= -166100
 e91: - 9 x16 - 6 x32 - 9 x48 - 9 x64 - 9 x80 - 2282 x386 - 2858 x387 - 2563 x388 - 1730 x389 - 2292 x390 
  - 1630 x391 - 1716 x392 - 2352 x393 + [ - x115 * x378 - x119 * x379 - x123 * x380 - x127 * x381 - x131 * x382 
  - x135 * x383 - x139 * x384 - x143 * x385 ] >= -136600
 e92: - 8 x16 - 4 x32 - 7 x48 - 5 x64 - 2 x80 - 2753 x386 - 2823 x387 - 2218 x388 - 2830 x389 - 1911 x390 
  - 2281 x391 - 890 x392 - 2532 x393 + [ - x116 * x378 - x120 * x379 - x124 * x380 - x128 * x381 - x132 * x382 
  - x136 * x383 - x140 * x384 - x144 * x385 ] >= -41300
 e93: - x16 - 6 x32 - x48 - x64 - x80 - 716 x386 - 2142 x387 - 2127 x388 - 2558 x389 - 2001 x390 - 1996 x391 
  - 1853 x392 - 626 x393 + [ - x117 * x378 - x121 * x379 - x125 * x380 - x129 * x381 - x133 * x382 - x137 * x383 
  - x141 * x384 - x145 * x385 ] >= -154600
 e94: - 2 x17 - 7 x33 - 7 x49 - 7 x65 - 6 x81 - 2704 x402 - 2504 x403 - 2966 x404 - 1446 x405 - 2236 x406 
  - 2808 x407 - 1753 x408 - 1379 x409 + [ - x114 * x394 - x118 * x395 - x122 * x396 - x126 * x397 - x130 * x398 
  - x134 * x399 - x138 * x400 - x142 * x401 ] >= -55935
 e95: - 9 x17 - 6 x33 - 9 x49 - 9 x65 - 9 x81 - 2282 x402 - 2858 x403 - 2563 x404 - 1730 x405 - 2292 x406 
  - 1630 x407 - 1716 x408 - 2352 x409 + [ - x115 * x394 - x119 * x395 - x123 * x396 - x127 * x397 - x131 * x398 
  - x135 * x399 - x139 * x400 - x143 * x401 ] >= -28755
 e96: - 8 x17 - 4 x33 - 7 x49 - 5 x65 - 2 x81 - 2753 x402 - 2823 x403 - 2218 x404 - 2830 x405 - 1911 x406 
  - 2281 x407 - 890 x408 - 2532 x409 + [ - x116 * x394 - x120 * x395 - x124 * x396 - x128 * x397 - x132 * x398 
  - x136 * x399 - x140 * x400 - x144 * x401 ] >= -93510
 e97: - x17 - 6 x33 - x49 - x65 - x81 - 716 x402 - 2142 x403 - 2127 x404 - 2558 x405 - 2001 x406 - 1996 x407 
  - 1853 x408 - 626 x409 + [ - x117 * x394 - x121 * x395 - x125 * x396 - x129 * x397 - x133 * x398 - x137 * x399 
  - x141 * x400 - x145 * x401 ] >= -11205
 e98: [ x82 * x146 - x114 * x146 ] = -3752
 e99: [ x83 * x146 - x115 * x146 ] = -146060
 e100: [ x84 * x146 - x116 * x146 ] = -151420
 e101: [ x85 * x146 - x117 * x146 ] = -93800
 e102: [ x86 * x163 - x118 * x163 ] = -10434
 e103: [ x87 * x163 - x119 * x163 ] = -29748
 e104: [ x88 * x163 - x120 * x163 ] = -42254
 e105: [ x89 * x163 - x121 * x163 ] = -20202
 e106: [ x90 * x180 - x122 * x180 ] = -48022
 e107: [ x91 * x180 - x123 * x180 ] = -13806
 e108: [ x92 * x180 - x124 * x180 ] = -14612
 e109: [ x93 * x180 - x125 * x180 ] = -39182
 e110: [ x94 * x197 - x126 * x197 ] = -123816
 e111: [ x95 * x197 - x127 * x197 ] = -23056
 e112: [ x96 * x197 - x128 * x197 ] = -209352
 e113: [ x97 * x197 - x129 * x197 ] = -195536
 e114: [ x98 * x214 - x130 * x214 ] = -107500
 e115: [ x99 * x214 - x131 * x214 ] = -24600
 e116: [ x100 * x214 - x132 * x214 ] = -79900
 e117: [ x101 * x214 - x133 * x214 ] = -186000
 e118: [ x102 * x231 - x134 * x231 ] = -5280
 e119: [ x103 * x231 - x135 * x231 ] = -31240
 e120: [ x104 * x231 - x136 * x231 ] = -67155
 e121: [ x105 * x231 - x137 * x231 ] = -76175
 e122: [ x106 * x248 - x138 * x248 ] = -57900
 e123: [ x107 * x248 - x139 * x248 ] = -9850
 e124: [ x108 * x248 - x140 * x248 ] = -35700
 e125: [ x109 * x248 - x141 * x248 ] = -134550
 e126: [ x110 * x265 - x142 * x265 ] = -2626
 e127: [ x111 * x265 - x143 * x265 ] = -33748
 e128: [ x112 * x265 - x144 * x265 ] = -23088
 e129: [ x113 * x265 - x145 * x265 ] = -67496

Bounds
 x2 <= 100000
 x3 <= 100000
 x4 <= 100000
 x5 <= 100000
 x6 <= 100000
 x7 <= 100000
 x8 <= 100000
 x9 <= 100000
 x10 <= 100000
 x11 <= 100000
 x12 <= 100000
 x13 <= 100000
 x14 <= 100000
 x15 <= 100000
 x16 <= 100000
 x17 <= 100000
 x18 <= 100000
 x19 <= 100000
 x20 <= 100000
 x21 <= 100000
 x22 <= 100000
 x23 <= 100000
 x24 <= 100000
 x25 <= 100000
 x26 <= 100000
 x27 <= 100000
 x28 <= 100000
 x29 <= 100000
 x30 <= 100000
 x31 <= 100000
 x32 <= 100000
 x33 <= 100000
 x34 <= 100000
 x35 <= 100000
 x36 <= 100000
 x37 <= 100000
 x38 <= 100000
 x39 <= 100000
 x40 <= 100000
 x41 <= 100000
 x42 <= 100000
 x43 <= 100000
 x44 <= 100000
 x45 <= 100000
 x46 <= 100000
 x47 <= 100000
 x48 <= 100000
 x49 <= 100000
 x50 <= 100000
 x51 <= 100000
 x52 <= 100000
 x53 <= 100000
 x54 <= 100000
 x55 <= 100000
 x56 <= 100000
 x57 <= 100000
 x58 <= 100000
 x59 <= 100000
 x60 <= 100000
 x61 <= 100000
 x62 <= 100000
 x63 <= 100000
 x64 <= 100000
 x65 <= 100000
 x66 <= 100000
 x67 <= 100000
 x68 <= 100000
 x69 <= 100000
 x70 <= 100000
 x71 <= 100000
 x72 <= 100000
 x73 <= 100000
 x74 <= 100000
 x75 <= 100000
 x76 <= 100000
 x77 <= 100000
 x78 <= 100000
 x79 <= 100000
 x80 <= 100000
 x81 <= 100000
 x82 <= 2250
 x83 <= 575
 x84 <= 203
 x85 <= 1393
 x86 <= 298
 x87 <= 2353
 x88 <= 364
 x89 <= 2396
 x90 <= 883
 x91 <= 1292
 x92 <= 2398
 x93 <= 862
 x94 <= 1257
 x95 <= 2354
 x96 <= 327
 x97 <= 341
 x98 <= 1680
 x99 <= 2476
 x100 <= 2105
 x101 <= 1092
 x102 <= 1759
 x103 <= 301
 x104 <= 139
 x105 <= 1354
 x106 <= 58
 x107 <= 2025
 x108 <= 511
 x109 <= 124
 x110 <= 2084
 x111 <= 538
 x112 <= 537
 x113 <= 225
 x114 <= 2278
 x115 <= 1665
 x116 <= 1333
 x117 <= 2093
 x118 <= 439
 x119 <= 2755
 x120 <= 935
 x121 <= 2669
 x122 <= 2730
 x123 <= 1823
 x124 <= 2960
 x125 <= 2369
 x126 <= 2664
 x127 <= 2616
 x128 <= 2706
 x129 <= 2563
 x130 <= 2755
 x131 <= 2722
 x132 <= 2904
 x133 <= 2952
 x134 <= 1855
 x135 <= 869
 x136 <= 1360
 x137 <= 2739
 x138 <= 1216
 x139 <= 2222
 x140 <= 1225
 x141 <= 2815
 x142 <= 2185
 x143 <= 1836
 x144 <= 1425
 x145 <= 2821
 x146 <= 134
 x147 <= 100000
 x148 <= 100000
 x149 <= 100000
 x150 <= 100000
 x151 <= 100000
 x152 <= 100000
 x153 <= 100000
 x154 <= 100000
 x155 <= 100000
 x156 <= 100000
 x157 <= 100000
 x158 <= 100000
 x159 <= 100000
 x160 <= 100000
 x161 <= 100000
 x162 <= 100000
 x163 <= 74
 x164 <= 100000
 x165 <= 100000
 x166 <= 100000
 x167 <= 100000
 x168 <= 100000
 x169 <= 100000
 x170 <= 100000
 x171 <= 100000
 x172 <= 100000
 x173 <= 100000
 x174 <= 100000
 x175 <= 100000
 x176 <= 100000
 x177 <= 100000
 x178 <= 100000
 x179 <= 100000
 x180 <= 26
 x181 <= 100000
 x182 <= 100000
 x183 <= 100000
 x184 <= 100000
 x185 <= 100000
 x186 <= 100000
 x187 <= 100000
 x188 <= 100000
 x189 <= 100000
 x190 <= 100000
 x191 <= 100000
 x192 <= 100000
 x193 <= 100000
 x194 <= 100000
 x195 <= 100000
 x196 <= 100000
 x197 <= 88
 x198 <= 100000
 x199 <= 100000
 x200 <= 100000
 x201 <= 100000
 x202 <= 100000
 x203 <= 100000
 x204 <= 100000
 x205 <= 100000
 x206 <= 100000
 x207 <= 100000
 x208 <= 100000
 x209 <= 100000
 x210 <= 100000
 x211 <= 100000
 x212 <= 100000
 x213 <= 100000
 x214 <= 100
 x215 <= 100000
 x216 <= 100000
 x217 <= 100000
 x218 <= 100000
 x219 <= 100000
 x220 <= 100000
 x221 <= 100000
 x222 <= 100000
 x223 <= 100000
 x224 <= 100000
 x225 <= 100000
 x226 <= 100000
 x227 <= 100000
 x228 <= 100000
 x229 <= 100000
 x230 <= 100000
 x231 <= 55
 x232 <= 100000
 x233 <= 100000
 x234 <= 100000
 x235 <= 100000
 x236 <= 100000
 x237 <= 100000
 x238 <= 100000
 x239 <= 100000
 x240 <= 100000
 x241 <= 100000
 x242 <= 100000
 x243 <= 100000
 x244 <= 100000
 x245 <= 100000
 x246 <= 100000
 x247 <= 100000
 x248 <= 50
 x249 <= 100000
 x250 <= 100000
 x251 <= 100000
 x252 <= 100000
 x253 <= 100000
 x254 <= 100000
 x255 <= 100000
 x256 <= 100000
 x257 <= 100000
 x258 <= 100000
 x259 <= 100000
 x260 <= 100000
 x261 <= 100000
 x262 <= 100000
 x263 <= 100000
 x264 <= 100000
 x265 <= 26
 x266 <= 100000
 x267 <= 100000
 x268 <= 100000
 x269 <= 100000
 x270 <= 100000
 x271 <= 100000
 x272 <= 100000
 x273 <= 100000
 x274 <= 100000
 x275 <= 100000
 x276 <= 100000
 x277 <= 100000
 x278 <= 100000
 x279 <= 100000
 x280 <= 100000
 x281 <= 100000
 x282 <= 100000
 x283 <= 100000
 x284 <= 100000
 x285 <= 100000
 x286 <= 100000
 x287 <= 100000
 x288 <= 100000
 x289 <= 100000
 x290 <= 100000
 x291 <= 100000
 x292 <= 100000
 x293 <= 100000
 x294 <= 100000
 x295 <= 100000
 x296 <= 100000
 x297 <= 100000
 x298 <= 100000
 x299 <= 100000
 x300 <= 100000
 x301 <= 100000
 x302 <= 100000
 x303 <= 100000
 x304 <= 100000
 x305 <= 100000
 x306 <= 100000
 x307 <= 100000
 x308 <= 100000
 x309 <= 100000
 x310 <= 100000
 x311 <= 100000
 x312 <= 100000
 x313 <= 100000
 x314 <= 100000
 x315 <= 100000
 x316 <= 100000
 x317 <= 100000
 x318 <= 100000
 x319 <= 100000
 x320 <= 100000
 x321 <= 100000
 x322 <= 100000
 x323 <= 100000
 x324 <= 100000
 x325 <= 100000
 x326 <= 100000
 x327 <= 100000
 x328 <= 100000
 x329 <= 100000
 x330 <= 100000
 x331 <= 100000
 x332 <= 100000
 x333 <= 100000
 x334 <= 100000
 x335 <= 100000
 x336 <= 100000
 x337 <= 100000
 x338 <= 100000
 x339 <= 100000
 x340 <= 100000
 x341 <= 100000
 x342 <= 100000
 x343 <= 100000
 x344 <= 100000
 x345 <= 100000
 x346 <= 100000
 x347 <= 100000
 x348 <= 100000
 x349 <= 100000
 x350 <= 100000
 x351 <= 100000
 x352 <= 100000
 x353 <= 100000
 x354 <= 100000
 x355 <= 100000
 x356 <= 100000
 x357 <= 100000
 x358 <= 100000
 x359 <= 100000
 x360 <= 100000
 x361 <= 100000
 x362 <= 100000
 x363 <= 100000
 x364 <= 100000
 x365 <= 100000
 x366 <= 100000
 x367 <= 100000
 x368 <= 100000
 x369 <= 100000
 x370 <= 100000
 x371 <= 100000
 x372 <= 100000
 x373 <= 100000
 x374 <= 100000
 x375 <= 100000
 x376 <= 100000
 x377 <= 100000
 x378 <= 100000
 x379 <= 100000
 x380 <= 100000
 x381 <= 100000
 x382 <= 100000
 x383 <= 100000
 x384 <= 100000
 x385 <= 100000
 x386 <= 100000
 x387 <= 100000
 x388 <= 100000
 x389 <= 100000
 x390 <= 100000
 x391 <= 100000
 x392 <= 100000
 x393 <= 100000
 x394 <= 100000
 x395 <= 100000
 x396 <= 100000
 x397 <= 100000
 x398 <= 100000
 x399 <= 100000
 x400 <= 100000
 x401 <= 100000
 x402 <= 100000
 x403 <= 100000
 x404 <= 100000
 x405 <= 100000
 x406 <= 100000
 x407 <= 100000
 x408 <= 100000
 x409 <= 100000
 x410 <= 100000
 x411 <= 100000
 x412 <= 100000
 x413 <= 100000
 x414 <= 100000
 x415 <= 100000
 x416 <= 100000
 x417 <= 100000
 x418 <= 100000
 x419 <= 100000
 x420 <= 100000
 x421 <= 100000
 x422 <= 100000
 x423 <= 100000
 x424 <= 100000
 x425 <= 100000

End
