\ Equation counts
\     Total        E        G        L        N        X        C        B
\       679      176      207      296        0        0        0        0
\ 
\ Variable counts
\                  x        b        i      s1s      s2s       sc       si
\     Total     cont   binary  integer     sos1     sos2    scont     sint
\       344      296       48        0        0        0        0        0
\ 
\ Nonzero counts
\     Total    const       NL      DLL
\      2005     1893      112        0
\ 
Maximize
 obj: 3 x2 + 3 x3 + 3 x4 + 3 x5 + 4.5 x6 + 4.5 x7 + 4.5 x8 + 4.5 x9 + 5 x10 + 5 x11 + 5 x12 + 5 x13 + 6 x14 
  + 6 x15 + 6 x16 + 6 x17 + 5 x18 + 5 x19 + 5 x20 + 5 x21 + 6 x22 + 6 x23 + 6 x24 + 6 x25 + 3 x26 + 3 x27 
  + 3 x28 + 3 x29 + 4.5 x30 + 4.5 x31 + 4.5 x32 + 4.5 x33 - 5 x34 - 5 x35 - 5 x36 - 5 x37 - 5 x38 - 5 x39 
  + 0 x40 + 0 x41 + 0 x42 + 0 x43 + 0 x44 + 0 x45 + 0 x46 + 0 x47 + 0 x48 + 0 x49 + 0 x50 + 0 x51 + 0 x52 
  + 0 x53 + 0 x54 + 0 x55 + 0 x56 + 0 x57 + 0 x58 + 0 x59 + 0 x60 + 0 x61 + 0 x62 + 0 x63 + 0 x64 + 0 x65 
  + 0 x66 + 0 x67 + 0 x68 + 0 x69 + 0 x70 + 0 x71 - 1.8 x72 - x73 + 0 b74 + 0 b75 + 0 b76 + 0 b77 + 0 b78 
  + 0 b79 + 0 b80 + 0 b81 + 0 b82 + 0 b83 + 0 b84 + 0 b85 + 0 b86 + 0 b87 + 0 b88 + 0 b89 + 0 b90 + 0 b91 
  + 0 b92 + 0 b93 + 0 b94 + 0 b95 + 0 b96 + 0 b97 + 0 b98 + 0 b99 + 0 b100 + 0 b101 + 0 b102 + 0 b103 
  + 0 b104 + 0 b105 + 0 x106 + 0 x107 + 0 x108 + 0 x109 + 0 x110 + 0 x111 + 0 x112 + 0 x113 + 0 x114 
  + 0 x115 + 0 x116 + 0 x117 + 0 x118 + 0 x119 + 0 x120 + 0 x121 + 0 x122 + 0 x123 + 0 x124 + 0 x125 
  + 0 x126 + 0 x127 + 0 x128 + 0 x129 + 0 x130 + 0 x131 + 0 x132 + 0 x133 + 0 x134 + 0 x135 + 0 x136 
  + 0 x137 + 0 x138 + 0 x139 + 0 x140 + 0 x141 + 0 x142 + 0 x143 + 0 x144 + 0 x145 + 0 x146 + 0 x147 
  + 0 x148 + 0 x149 + 0 x150 + 0 x151 + 0 x152 + 0 x153 + 0 x154 + 0 x155 + 0 x156 + 0 x157 + 0 x158 
  + 0 x159 + 0 x160 + 0 x161 + 0 x162 + 0 x163 + 0 x164 + 0 x165 + 0 x166 + 0 x167 + 0 x168 + 0 x169 
  + 0 x170 + 0 x171 + 0 x172 + 0 x173 + 0 x174 + 0 x175 + 0 x176 + 0 x177 + 0 x178 + 0 x179 + 0 x180 
  + 0 x181 + 0 x182 + 0 x183 + 0 x184 + 0 x185 + 0 x186 + 0 x187 + 0 x188 + 0 x189 + 0 x190 + 0 x191 
  + 0 x192 + 0 x193 + 0 x194 + 0 x195 + 0 x196 + 0 x197 + 0 x198 + 0 x199 + 0 x200 + 0 x201 + 0 x202 
  + 0 x203 + 0 x204 + 0 x205 + 0 x206 + 0 x207 + 0 x208 + 0 x209 + 0 x210 + 0 x211 + 0 x212 + 0 x213 
  + 0 x214 + 0 x215 + 0 x216 + 0 x217 + 0 x218 + 0 x219 + 0 x220 + 0 x221 + 0 x222 + 0 x223 + 0 x224 
  + 0 x225 + 0 x226 + 0 x227 + 0 x228 + 0 x229 + 0 x230 + 0 x231 + 0 x232 + 0 x233 + 0 x234 + 0 x235 
  + 0 x236 + 0 x237 + 0 x238 + 0 x239 + 0 x240 + 0 x241 + 0 x242 + 0 x243 + 0 x244 + 0 x245 + 0 x246 
  + 0 x247 + 0 x248 + 0 x249 + 0 x250 + 0 x251 + 0 x252 + 0 x253 + 0 x254 + 0 x255 + 0 x256 + 0 x257 
  + 0 x258 + 0 x259 + 0 x260 + 0 x261 + 0 b262 + 0 b263 + 0 b264 + 0 b265 + 0 b266 + 0 b267 + 0 b268 
  + 0 b269 + 0 b270 + 0 b271 + 0 b272 + 0 b273 + 0 b274 + 0 b275 + 0 b276 + 0 b277 + 0 x278 + 0 x279 
  + 0 x280 + 0 x281 + 0 x282 + 0 x283 + 0 x284 + 0 x285 + 0 x286 + 0 x287 + 0 x288 + 0 x289 + 0 x290 
  + 0 x291 + 0 x292 + 0 x293 + 0 x294 + 0 x295 + 0 x296 + 0 x297 + 0 x298 + 0 x299 + 0 x300 + 0 x301 
  + 0 x302 + 0 x303 + 0 x304 + 0 x305 + 0 x306 + 0 x307 + 0 x308 + 0 x309 + 0 x310 + 0 x311 + 0 x312 
  + 0 x313 + 0 x314 + 0 x315 + 0 x316 + 0 x317 + 0 x318 + 0 x319 + 0 x320 + 0 x321 + 0 x322 + 0 x323 
  + 0 x324 + 0 x325 + 0 x326 + 0 x327 + 0 x328 + 0 x329 + 0 x330 + 0 x331 + 0 x332 + 0 x333 + 0 x334 
  + 0 x335 + 0 x336 + 0 x337 + 0 x338 + 0 x339 + 0 x340 + 0 x341 + 0 x342 + 0 x343 + 0 x344 + 0 x345

Subject To
 e2: b74 + b75 + b76 + b77 + b78 + b79 + b80 + b81 = 1
 e3: b82 + b83 + b84 + b85 + b86 + b87 + b88 + b89 = 1
 e4: b90 + b91 + b92 + b93 + b94 + b95 + b96 + b97 = 1
 e5: b98 + b99 + b100 + b101 + b102 + b103 + b104 + b105 = 1
 e6: - x106 - 1.25 x107 + 1.25 x108 <= 0
 e7: - x109 - 1.25 x110 + 1.25 x111 <= 0
 e8: - x112 - 1.25 x113 + 1.25 x114 <= 0
 e9: - x115 - 1.25 x116 + 1.25 x117 <= 0
 e10: - x118 - 1.25 x119 + 1.25 x120 <= 0
 e11: - x121 - 1.25 x122 + 1.25 x123 <= 0
 e12: - x124 - 1.25 x125 + 1.25 x126 <= 0
 e13: - x127 - 1.25 x128 + 1.25 x129 <= 0
 e14: - x130 - 1.25 x131 + 1.25 x132 <= 0
 e15: - x133 - 1.25 x134 + 1.25 x135 <= 0
 e16: - x136 - 1.25 x137 + 1.25 x138 <= 0
 e17: - x139 - 1.25 x140 + 1.25 x141 <= 0
 e18: - x142 - 1.25 x143 + 1.25 x144 <= 0
 e19: - x145 - 1.25 x146 + 1.25 x147 <= 0
 e20: - x148 - 1.25 x149 + 1.25 x150 <= 0
 e21: - x151 - 1.25 x152 + 1.25 x153 <= 0
 e22: - x154 - 1.25 x155 + 1.25 x156 <= 0
 e23: - x157 - 1.25 x158 + 1.25 x159 <= 0
 e24: - x160 - 1.25 x161 + 1.25 x162 <= 0
 e25: - x163 - 1.25 x164 + 1.25 x165 <= 0
 e26: - x166 - 1.25 x167 + 1.25 x168 <= 0
 e27: - x169 - 1.25 x170 + 1.25 x171 <= 0
 e28: - x172 - 1.25 x173 + 1.25 x174 <= 0
 e29: - x175 - 1.25 x176 + 1.25 x177 <= 0
 e30: - x178 - 1.25 x179 + 1.25 x180 <= 0
 e31: - x181 - 1.25 x182 + 1.25 x183 <= 0
 e32: - x184 - 1.25 x185 + 1.25 x186 <= 0
 e33: - x187 - 1.25 x188 + 1.25 x189 <= 0
 e34: - x190 - 1.25 x191 + 1.25 x192 <= 0
 e35: - x193 - 1.25 x194 + 1.25 x195 <= 0
 e36: - x196 - 1.25 x197 + 1.25 x198 <= 0
 e37: - x199 - 1.25 x200 + 1.25 x201 <= 0
 e38: x106 + 50 x107 - 50 x108 <= 0
 e39: x109 + 50 x110 - 50 x111 <= 0
 e40: x112 + 50 x113 - 50 x114 <= 0
 e41: x115 + 50 x116 - 50 x117 <= 0
 e42: x118 + 50 x119 - 50 x120 <= 0
 e43: x121 + 50 x122 - 50 x123 <= 0
 e44: x124 + 50 x125 - 50 x126 <= 0
 e45: x127 + 50 x128 - 50 x129 <= 0
 e46: x130 + 50 x131 - 50 x132 <= 0
 e47: x133 + 50 x134 - 50 x135 <= 0
 e48: x136 + 50 x137 - 50 x138 <= 0
 e49: x139 + 50 x140 - 50 x141 <= 0
 e50: x142 + 50 x143 - 50 x144 <= 0
 e51: x145 + 50 x146 - 50 x147 <= 0
 e52: x148 + 50 x149 - 50 x150 <= 0
 e53: x151 + 50 x152 - 50 x153 <= 0
 e54: x154 + 50 x155 - 50 x156 <= 0
 e55: x157 + 50 x158 - 50 x159 <= 0
 e56: x160 + 50 x161 - 50 x162 <= 0
 e57: x163 + 50 x164 - 50 x165 <= 0
 e58: x166 + 50 x167 - 50 x168 <= 0
 e59: x169 + 50 x170 - 50 x171 <= 0
 e60: x172 + 50 x173 - 50 x174 <= 0
 e61: x175 + 50 x176 - 50 x177 <= 0
 e62: x178 + 50 x179 - 50 x180 <= 0
 e63: x181 + 50 x182 - 50 x183 <= 0
 e64: x184 + 50 x185 - 50 x186 <= 0
 e65: x187 + 50 x188 - 50 x189 <= 0
 e66: x190 + 50 x191 - 50 x192 <= 0
 e67: x193 + 50 x194 - 50 x195 <= 0
 e68: x196 + 50 x197 - 50 x198 <= 0
 e69: x199 + 50 x200 - 50 x201 <= 0
 e70: - 10 b74 + x106 = 0
 e71: - 10 b75 + x109 = 0
 e72: - 10 b76 + x112 = 0
 e73: - 10 b77 + x115 = 0
 e74: - 10 b78 + x118 = 0
 e75: - 10 b79 + x121 = 0
 e76: - 10 b80 + x124 = 0
 e77: - 10 b81 + x127 = 0
 e78: - 300 b82 + x130 = 0
 e79: - 300 b83 + x133 = 0
 e80: - 300 b84 + x136 = 0
 e81: - 300 b85 + x139 = 0
 e82: - 300 b86 + x142 = 0
 e83: - 300 b87 + x145 = 0
 e84: - 300 b88 + x148 = 0
 e85: - 300 b89 + x151 = 0
 e86: - 300 b90 + x154 = 0
 e87: - 300 b91 + x157 = 0
 e88: - 300 b92 + x160 = 0
 e89: - 300 b93 + x163 = 0
 e90: - 300 b94 + x166 = 0
 e91: - 300 b95 + x169 = 0
 e92: - 300 b96 + x172 = 0
 e93: - 300 b97 + x175 = 0
 e94: - 340 b98 + x178 = 0
 e95: - 340 b99 + x181 = 0
 e96: - 340 b100 + x184 = 0
 e97: - 340 b101 + x187 = 0
 e98: - 340 b102 + x190 = 0
 e99: - 340 b103 + x193 = 0
 e100: - 340 b104 + x196 = 0
 e101: - 340 b105 + x199 = 0
 e102: 72 b74 - x107 + x202 <= 72
 e103: 72 b75 - x110 + x202 <= 72
 e104: 72 b76 - x113 + x202 <= 72
 e105: 72 b77 - x116 + x202 <= 72
 e106: 72 b78 - x119 + x202 <= 72
 e107: 72 b79 - x122 + x202 <= 72
 e108: 72 b80 - x125 + x202 <= 72
 e109: 72 b81 - x128 + x202 <= 72
 e110: 72 b82 - x131 + x203 <= 72
 e111: 72 b83 - x134 + x203 <= 72
 e112: 72 b84 - x137 + x203 <= 72
 e113: 72 b85 - x140 + x203 <= 72
 e114: 72 b86 - x143 + x203 <= 72
 e115: 72 b87 - x146 + x203 <= 72
 e116: 72 b88 - x149 + x203 <= 72
 e117: 72 b89 - x152 + x203 <= 72
 e118: 72 b90 - x155 + x204 <= 72
 e119: 72 b91 - x158 + x204 <= 72
 e120: 72 b92 - x161 + x204 <= 72
 e121: 72 b93 - x164 + x204 <= 72
 e122: 72 b94 - x167 + x204 <= 72
 e123: 72 b95 - x170 + x204 <= 72
 e124: 72 b96 - x173 + x204 <= 72
 e125: 72 b97 - x176 + x204 <= 72
 e126: 72 b98 - x179 + x205 <= 72
 e127: 72 b99 - x182 + x205 <= 72
 e128: 72 b100 - x185 + x205 <= 72
 e129: 72 b101 - x188 + x205 <= 72
 e130: 72 b102 - x191 + x205 <= 72
 e131: 72 b103 - x194 + x205 <= 72
 e132: 72 b104 - x197 + x205 <= 72
 e133: 72 b105 - x200 + x205 <= 72
 e134: - 72 b74 - x108 + x206 >= -72
 e135: - 72 b75 - x111 + x206 >= -72
 e136: - 72 b76 - x114 + x206 >= -72
 e137: - 72 b77 - x117 + x206 >= -72
 e138: - 72 b78 - x120 + x206 >= -72
 e139: - 72 b79 - x123 + x206 >= -72
 e140: - 72 b80 - x126 + x206 >= -72
 e141: - 72 b81 - x129 + x206 >= -72
 e142: - 72 b82 - x132 + x207 >= -72
 e143: - 72 b83 - x135 + x207 >= -72
 e144: - 72 b84 - x138 + x207 >= -72
 e145: - 72 b85 - x141 + x207 >= -72
 e146: - 72 b86 - x144 + x207 >= -72
 e147: - 72 b87 - x147 + x207 >= -72
 e148: - 72 b88 - x150 + x207 >= -72
 e149: - 72 b89 - x153 + x207 >= -72
 e150: - 72 b90 - x156 + x208 >= -72
 e151: - 72 b91 - x159 + x208 >= -72
 e152: - 72 b92 - x162 + x208 >= -72
 e153: - 72 b93 - x165 + x208 >= -72
 e154: - 72 b94 - x168 + x208 >= -72
 e155: - 72 b95 - x171 + x208 >= -72
 e156: - 72 b96 - x174 + x208 >= -72
 e157: - 72 b97 - x177 + x208 >= -72
 e158: - 72 b98 - x180 + x209 >= -72
 e159: - 72 b99 - x183 + x209 >= -72
 e160: - 72 b100 - x186 + x209 >= -72
 e161: - 72 b101 - x189 + x209 >= -72
 e162: - 72 b102 - x192 + x209 >= -72
 e163: - 72 b103 - x195 + x209 >= -72
 e164: - 72 b104 - x198 + x209 >= -72
 e165: - 72 b105 - x201 + x209 >= -72
 e166: x203 - x206 >= 0
 e167: x204 - x207 >= 0
 e168: x205 - x208 >= 0
 e169: - x210 + x211 + x212 = 0
 e170: - x213 + x214 + x215 = 0
 e171: - x216 + x217 + x218 = 0
 e172: - x219 + x220 + x221 = 0
 e173: - x222 + x223 + x224 = 0
 e174: - x225 + x226 + x227 = 0
 e175: - x228 + x229 + x230 = 0
 e176: - x231 + x232 + x233 = 0
 e177: - x234 + x235 + x236 = 0
 e178: - x237 + x238 + x239 = 0
 e179: - x240 + x241 + x242 = 0
 e180: - x243 + x244 + x245 = 0
 e181: - x246 + x247 + x248 = 0
 e182: - x249 + x250 + x251 = 0
 e183: - x252 + x253 + x254 = 0
 e184: - x255 + x256 + x257 = 0
 e185: 0.2 x210 - x211 <= 0
 e186: 0.2 x213 - x214 <= 0
 e187: 0.2 x216 - x217 <= 0
 e188: 0.2 x219 - x220 <= 0
 e189: 0.2 x210 - x212 <= 0
 e190: 0.2 x213 - x215 <= 0
 e191: 0.2 x216 - x218 <= 0
 e192: 0.2 x219 - x221 <= 0
 e193: 0.2 x222 - x223 <= 0
 e194: 0.2 x225 - x226 <= 0
 e195: 0.2 x228 - x229 <= 0
 e196: 0.2 x231 - x232 <= 0
 e197: 0.2 x222 - x224 <= 0
 e198: 0.2 x225 - x227 <= 0
 e199: 0.2 x228 - x230 <= 0
 e200: 0.2 x231 - x233 <= 0
 e201: 0.2 x246 - x247 <= 0
 e202: 0.2 x249 - x250 <= 0
 e203: 0.2 x252 - x253 <= 0
 e204: 0.2 x255 - x256 <= 0
 e205: 0.2 x246 - x248 <= 0
 e206: 0.2 x249 - x251 <= 0
 e207: 0.2 x252 - x254 <= 0
 e208: 0.2 x255 - x257 <= 0
 e209: - 0.8 x210 + x211 <= 0
 e210: - 0.8 x213 + x214 <= 0
 e211: - 0.8 x216 + x217 <= 0
 e212: - 0.8 x219 + x220 <= 0
 e213: - 0.8 x210 + x212 <= 0
 e214: - 0.8 x213 + x215 <= 0
 e215: - 0.8 x216 + x218 <= 0
 e216: - 0.8 x219 + x221 <= 0
 e217: - 0.8 x222 + x223 <= 0
 e218: - 0.8 x225 + x226 <= 0
 e219: - 0.8 x228 + x229 <= 0
 e220: - 0.8 x231 + x232 <= 0
 e221: - 0.8 x222 + x224 <= 0
 e222: - 0.8 x225 + x227 <= 0
 e223: - 0.8 x228 + x230 <= 0
 e224: - 0.8 x231 + x233 <= 0
 e225: - 0.8 x246 + x247 <= 0
 e226: - 0.8 x249 + x250 <= 0
 e227: - 0.8 x252 + x253 <= 0
 e228: - 0.8 x255 + x256 <= 0
 e229: - 0.8 x246 + x248 <= 0
 e230: - 0.8 x249 + x251 <= 0
 e231: - 0.8 x252 + x254 <= 0
 e232: - 0.8 x255 + x257 <= 0
 e233: x2 - 0.6666666667 x258 = 0
 e234: x6 - 0.3333333333 x258 = 0
 e235: x10 - 0.3333333333 x259 = 0
 e236: x14 - 0.6666666667 x259 = 0
 e237: x18 - 0.2 x260 = 0
 e238: x22 - 0.8 x260 = 0
 e239: x26 - 0.4333333333 x261 = 0
 e240: x30 - 0.5666666667 x261 = 0
 e241: b74 + b262 <= 1
 e242: b75 + b263 <= 1
 e243: b76 + b264 <= 1
 e244: b77 + b265 <= 1
 e245: b78 + b266 <= 1
 e246: b79 + b267 <= 1
 e247: b80 + b268 <= 1
 e248: b81 + b269 <= 1
 e249: b82 + b262 <= 1
 e250: b83 + b263 <= 1
 e251: b84 + b264 <= 1
 e252: b85 + b265 <= 1
 e253: b86 + b266 <= 1
 e254: b87 + b267 <= 1
 e255: b88 + b268 <= 1
 e256: b89 + b269 <= 1
 e257: b90 + b270 <= 1
 e258: b91 + b271 <= 1
 e259: b92 + b272 <= 1
 e260: b93 + b273 <= 1
 e261: b94 + b274 <= 1
 e262: b95 + b275 <= 1
 e263: b96 + b276 <= 1
 e264: b97 + b277 <= 1
 e265: b98 + b270 <= 1
 e266: b99 + b271 <= 1
 e267: b100 + b272 <= 1
 e268: b101 + b273 <= 1
 e269: b102 + b274 <= 1
 e270: b103 + b275 <= 1
 e271: b104 + b276 <= 1
 e272: b105 + b277 <= 1
 e273: b262 + b266 <= 2
 e274: b263 + b267 <= 2
 e275: b264 + b268 <= 2
 e276: b265 + b269 <= 2
 e277: b270 + b274 <= 2
 e278: b271 + b275 <= 2
 e279: b272 + b276 <= 2
 e280: b273 + b277 <= 2
 e281: x258 + 12.5 x278 - 12.5 x279 <= 0
 e282: x280 + 12.5 x281 - 12.5 x282 <= 0
 e283: x283 + 12.5 x284 - 12.5 x285 <= 0
 e284: x286 + 12.5 x287 - 12.5 x288 <= 0
 e285: x259 + 12.5 x289 - 12.5 x290 <= 0
 e286: x291 + 12.5 x292 - 12.5 x293 <= 0
 e287: x294 + 12.5 x295 - 12.5 x296 <= 0
 e288: x297 + 12.5 x298 - 12.5 x299 <= 0
 e289: x260 + 12.5 x300 - 12.5 x301 <= 0
 e290: x302 + 12.5 x303 - 12.5 x304 <= 0
 e291: x305 + 12.5 x306 - 12.5 x307 <= 0
 e292: x308 + 12.5 x309 - 12.5 x310 <= 0
 e293: x261 + 12.5 x311 - 12.5 x312 <= 0
 e294: x313 + 12.5 x314 - 12.5 x315 <= 0
 e295: x316 + 12.5 x317 - 12.5 x318 <= 0
 e296: x319 + 12.5 x320 - 12.5 x321 <= 0
 e297: x258 - 250 b262 <= 0
 e298: - 560 b263 + x280 <= 0
 e299: - 650 b264 + x283 <= 0
 e300: - 650 b265 + x286 <= 0
 e301: x259 - 250 b270 <= 0
 e302: - 650 b271 + x291 <= 0
 e303: - 650 b272 + x294 <= 0
 e304: - 650 b273 + x297 <= 0
 e305: x260 - 200 b274 <= 0
 e306: - 840 b275 + x302 <= 0
 e307: - 850 b276 + x305 <= 0
 e308: - 850 b277 + x308 <= 0
 e309: x261 - 250 b266 <= 0
 e310: - 560 b267 + x313 <= 0
 e311: - 650 b268 + x316 <= 0
 e312: - 650 b269 + x319 <= 0
 e313: - x2 - x6 + x258 = 0
 e314: - x3 - x7 + x280 = 0
 e315: - x4 - x8 + x283 = 0
 e316: - x5 - x9 + x286 = 0
 e317: - x10 - x14 + x259 = 0
 e318: - x11 - x15 + x291 = 0
 e319: - x12 - x16 + x294 = 0
 e320: - x13 - x17 + x297 = 0
 e321: - x18 - x22 + x260 = 0
 e322: - x19 - x23 + x302 = 0
 e323: - x20 - x24 + x305 = 0
 e324: - x21 - x25 + x308 = 0
 e325: - x26 - x30 + x261 = 0
 e326: - x27 - x31 + x313 = 0
 e327: - x28 - x32 + x316 = 0
 e328: - x29 - x33 + x319 = 0
 e329: - x258 - x261 + x322 = 0
 e330: - x280 - x313 + x323 = 0
 e331: - x283 - x316 + x324 = 0
 e332: - x286 - x319 + x325 = 0
 e333: - x259 - x260 + x326 = 0
 e334: - x291 - x302 + x327 = 0
 e335: - x294 - x305 + x328 = 0
 e336: - x297 - x308 + x329 = 0
 e337: - x322 - 6.25 x330 + 6.25 x331 <= 0
 e338: - x323 - 6.25 x332 + 6.25 x333 <= 0
 e339: - x324 - 6.25 x334 + 6.25 x335 <= 0
 e340: - x325 - 6.25 x336 + 6.25 x337 <= 0
 e341: - x326 - 6.25 x338 + 6.25 x339 <= 0
 e342: - x327 - 6.25 x340 + 6.25 x341 <= 0
 e343: - x328 - 6.25 x342 + 6.25 x343 <= 0
 e344: - x329 - 6.25 x344 + 6.25 x345 <= 0
 e345: x322 + 12.5 x330 - 12.5 x331 <= 0
 e346: x323 + 12.5 x332 - 12.5 x333 <= 0
 e347: x324 + 12.5 x334 - 12.5 x335 <= 0
 e348: x325 + 12.5 x336 - 12.5 x337 <= 0
 e349: x326 + 12.5 x338 - 12.5 x339 <= 0
 e350: x327 + 12.5 x340 - 12.5 x341 <= 0
 e351: x328 + 12.5 x342 - 12.5 x343 <= 0
 e352: x329 + 12.5 x344 - 12.5 x345 <= 0
 e353: - x2 - x26 + 0.3 x322 <= 0
 e354: - x3 - x27 + 0.3 x323 <= 0
 e355: - x4 - x28 + 0.3 x324 <= 0
 e356: - x5 - x29 + 0.3 x325 <= 0
 e357: - x6 - x30 + 0.3 x322 <= 0
 e358: - x7 - x31 + 0.3 x323 <= 0
 e359: - x8 - x32 + 0.3 x324 <= 0
 e360: - x9 - x33 + 0.3 x325 <= 0
 e361: x2 + x26 - 0.7 x322 <= 0
 e362: x3 + x27 - 0.7 x323 <= 0
 e363: x4 + x28 - 0.7 x324 <= 0
 e364: x5 + x29 - 0.7 x325 <= 0
 e365: x6 + x30 - 0.7 x322 <= 0
 e366: x7 + x31 - 0.7 x323 <= 0
 e367: x8 + x32 - 0.7 x324 <= 0
 e368: x9 + x33 - 0.7 x325 <= 0
 e369: - 0.005 x2 - 0.006 x6 - 0.005 x26 - 0.006 x30 + 0.0045 x258 + 0.0045 x261 <= 0
 e370: - 0.005 x3 - 0.006 x7 - 0.005 x27 - 0.006 x31 + 0.0045 x280 + 0.0045 x313 <= 0
 e371: - 0.005 x4 - 0.006 x8 - 0.005 x28 - 0.006 x32 + 0.0045 x283 + 0.0045 x316 <= 0
 e372: - 0.005 x5 - 0.006 x9 - 0.005 x29 - 0.006 x33 + 0.0045 x286 + 0.0045 x319 <= 0
 e373: - 0.0165 x10 - 0.0145 x14 - 0.0165 x18 - 0.0145 x22 + 0.014 x259 + 0.014 x260 <= 0
 e374: - 0.0165 x11 - 0.0145 x15 - 0.0165 x19 - 0.0145 x23 + 0.014 x291 + 0.014 x302 <= 0
 e375: - 0.0165 x12 - 0.0145 x16 - 0.0165 x20 - 0.0145 x24 + 0.014 x294 + 0.014 x305 <= 0
 e376: - 0.0165 x13 - 0.0145 x17 - 0.0165 x21 - 0.0145 x25 + 0.014 x297 + 0.014 x308 <= 0
 e377: 0.005 x2 + 0.006 x6 + 0.005 x26 + 0.006 x30 - 0.006 x258 - 0.006 x261 <= 0
 e378: 0.005 x3 + 0.006 x7 + 0.005 x27 + 0.006 x31 - 0.006 x280 - 0.006 x313 <= 0
 e379: 0.005 x4 + 0.006 x8 + 0.005 x28 + 0.006 x32 - 0.006 x283 - 0.006 x316 <= 0
 e380: 0.005 x5 + 0.006 x9 + 0.005 x29 + 0.006 x33 - 0.006 x286 - 0.006 x319 <= 0
 e381: 0.0165 x10 + 0.0145 x14 + 0.0165 x18 + 0.0145 x22 - 0.0153 x259 - 0.0153 x260 <= 0
 e382: 0.0165 x11 + 0.0145 x15 + 0.0165 x19 + 0.0145 x23 - 0.0153 x291 - 0.0153 x302 <= 0
 e383: 0.0165 x12 + 0.0145 x16 + 0.0165 x20 + 0.0145 x24 - 0.0153 x294 - 0.0153 x305 <= 0
 e384: 0.0165 x13 + 0.0145 x17 + 0.0165 x21 + 0.0145 x25 - 0.0153 x297 - 0.0153 x308 <= 0
 e385: x322 + x323 + x324 + x325 = 550
 e386: x326 + x327 + x328 + x329 = 550
 e387: - x108 + x110 >= 0
 e388: - x111 + x113 >= 0
 e389: - x114 + x116 >= 0
 e390: - x120 + x122 >= 0
 e391: - x123 + x125 >= 0
 e392: - x126 + x128 >= 0
 e393: - x132 + x134 >= 0
 e394: - x135 + x137 >= 0
 e395: - x138 + x140 >= 0
 e396: - x144 + x146 >= 0
 e397: - x147 + x149 >= 0
 e398: - x150 + x152 >= 0
 e399: - x156 + x158 >= 0
 e400: - x159 + x161 >= 0
 e401: - x162 + x164 >= 0
 e402: - x168 + x170 >= 0
 e403: - x171 + x173 >= 0
 e404: - x174 + x176 >= 0
 e405: - x180 + x182 >= 0
 e406: - x183 + x185 >= 0
 e407: - x186 + x188 >= 0
 e408: - x192 + x194 >= 0
 e409: - x195 + x197 >= 0
 e410: - x198 + x200 >= 0
 e411: - 72 b74 - x108 + x134 >= -72
 e412: - 72 b75 - x111 + x137 >= -72
 e413: - 72 b76 - x114 + x140 >= -72
 e414: - 72 b78 - x120 + x146 >= -72
 e415: - 72 b79 - x123 + x149 >= -72
 e416: - 72 b80 - x126 + x152 >= -72
 e417: - 72 b82 + x110 - x132 >= -72
 e418: - 72 b83 + x113 - x135 >= -72
 e419: - 72 b84 + x116 - x138 >= -72
 e420: - 72 b86 + x122 - x144 >= -72
 e421: - 72 b87 + x125 - x147 >= -72
 e422: - 72 b88 + x128 - x150 >= -72
 e423: - 72 b90 - x156 + x182 >= -72
 e424: - 72 b91 - x159 + x185 >= -72
 e425: - 72 b92 - x162 + x188 >= -72
 e426: - 72 b94 - x168 + x194 >= -72
 e427: - 72 b95 - x171 + x197 >= -72
 e428: - 72 b96 - x174 + x200 >= -72
 e429: - 72 b98 + x158 - x180 >= -72
 e430: - 72 b99 + x161 - x183 >= -72
 e431: - 72 b100 + x164 - x186 >= -72
 e432: - 72 b102 + x170 - x192 >= -72
 e433: - 72 b103 + x173 - x195 >= -72
 e434: - 72 b104 + x176 - x198 >= -72
 e435: - x279 + x281 >= 0
 e436: - x282 + x284 >= 0
 e437: - x285 + x287 >= 0
 e438: - x290 + x292 >= 0
 e439: - x293 + x295 >= 0
 e440: - x296 + x298 >= 0
 e441: - x301 + x303 >= 0
 e442: - x304 + x306 >= 0
 e443: - x307 + x309 >= 0
 e444: - x312 + x314 >= 0
 e445: - x315 + x317 >= 0
 e446: - x318 + x320 >= 0
 e447: x110 - 72 b262 - x279 >= -72
 e448: x113 - 72 b263 - x282 >= -72
 e449: x116 - 72 b264 - x285 >= -72
 e450: x122 - 72 b266 - x312 >= -72
 e451: x125 - 72 b267 - x315 >= -72
 e452: x128 - 72 b268 - x318 >= -72
 e453: x134 - 72 b262 - x279 >= -72
 e454: x137 - 72 b263 - x282 >= -72
 e455: x140 - 72 b264 - x285 >= -72
 e456: x146 - 72 b266 - x312 >= -72
 e457: x149 - 72 b267 - x315 >= -72
 e458: x152 - 72 b268 - x318 >= -72
 e459: x158 - 72 b270 - x290 >= -72
 e460: x161 - 72 b271 - x293 >= -72
 e461: x164 - 72 b272 - x296 >= -72
 e462: x170 - 72 b274 - x301 >= -72
 e463: x173 - 72 b275 - x304 >= -72
 e464: x176 - 72 b276 - x307 >= -72
 e465: x182 - 72 b270 - x290 >= -72
 e466: x185 - 72 b271 - x293 >= -72
 e467: x188 - 72 b272 - x296 >= -72
 e468: x194 - 72 b274 - x301 >= -72
 e469: x197 - 72 b275 - x304 >= -72
 e470: x200 - 72 b276 - x307 >= -72
 e471: - 80 b74 - x108 + x281 >= -72
 e472: - 80 b75 - x111 + x284 >= -72
 e473: - 80 b76 - x114 + x287 >= -72
 e474: - 80 b78 - x120 + x314 >= -72
 e475: - 80 b79 - x123 + x317 >= -72
 e476: - 80 b80 - x126 + x320 >= -72
 e477: - 80 b82 - x132 + x281 >= -72
 e478: - 80 b83 - x135 + x284 >= -72
 e479: - 80 b84 - x138 + x287 >= -72
 e480: - 80 b86 - x144 + x314 >= -72
 e481: - 80 b87 - x147 + x317 >= -72
 e482: - 80 b88 - x150 + x320 >= -72
 e483: - 80 b90 - x156 + x292 >= -72
 e484: - 80 b91 - x159 + x295 >= -72
 e485: - 80 b92 - x162 + x298 >= -72
 e486: - 80 b94 - x168 + x303 >= -72
 e487: - 80 b95 - x171 + x306 >= -72
 e488: - 80 b96 - x174 + x309 >= -72
 e489: - 80 b98 - x180 + x292 >= -72
 e490: - 80 b99 - x183 + x295 >= -72
 e491: - 80 b100 - x186 + x298 >= -72
 e492: - 80 b102 - x192 + x303 >= -72
 e493: - 80 b103 - x195 + x306 >= -72
 e494: - 80 b104 - x198 + x309 >= -72
 e495: - x331 + x332 >= 0
 e496: - x333 + x334 >= 0
 e497: - x335 + x336 >= 0
 e498: - x339 + x340 >= 0
 e499: - x341 + x342 >= 0
 e500: - x343 + x344 >= 0
 e501: - 72 b262 - x278 + x330 >= -72
 e502: - 72 b263 - x281 + x332 >= -72
 e503: - 72 b264 - x284 + x334 >= -72
 e504: - 72 b265 - x287 + x336 >= -72
 e505: - 72 b270 - x289 + x338 >= -72
 e506: - 72 b271 - x292 + x340 >= -72
 e507: - 72 b272 - x295 + x342 >= -72
 e508: - 72 b273 - x298 + x344 >= -72
 e509: - 72 b274 - x300 + x338 >= -72
 e510: - 72 b275 - x303 + x340 >= -72
 e511: - 72 b276 - x306 + x342 >= -72
 e512: - 72 b277 - x309 + x344 >= -72
 e513: - 72 b266 - x311 + x330 >= -72
 e514: - 72 b267 - x314 + x332 >= -72
 e515: - 72 b268 - x317 + x334 >= -72
 e516: - 72 b269 - x320 + x336 >= -72
 e517: 72 b262 - x278 + x330 <= 72
 e518: 72 b263 - x281 + x332 <= 72
 e519: 72 b264 - x284 + x334 <= 72
 e520: 72 b265 - x287 + x336 <= 72
 e521: 72 b270 - x289 + x338 <= 72
 e522: 72 b271 - x292 + x340 <= 72
 e523: 72 b272 - x295 + x342 <= 72
 e524: 72 b273 - x298 + x344 <= 72
 e525: 72 b274 - x300 + x338 <= 72
 e526: 72 b275 - x303 + x340 <= 72
 e527: 72 b276 - x306 + x342 <= 72
 e528: 72 b277 - x309 + x344 <= 72
 e529: 72 b266 - x311 + x330 <= 72
 e530: 72 b267 - x314 + x332 <= 72
 e531: 72 b268 - x317 + x334 <= 72
 e532: 72 b269 - x320 + x336 <= 72
 e533: - 72 b262 - x279 + x331 >= -72
 e534: - 72 b263 - x282 + x333 >= -72
 e535: - 72 b264 - x285 + x335 >= -72
 e536: - 72 b265 - x288 + x337 >= -72
 e537: - 72 b270 - x290 + x339 >= -72
 e538: - 72 b271 - x293 + x341 >= -72
 e539: - 72 b272 - x296 + x343 >= -72
 e540: - 72 b273 - x299 + x345 >= -72
 e541: - 72 b274 - x301 + x339 >= -72
 e542: - 72 b275 - x304 + x341 >= -72
 e543: - 72 b276 - x307 + x343 >= -72
 e544: - 72 b277 - x310 + x345 >= -72
 e545: - 72 b266 - x312 + x331 >= -72
 e546: - 72 b267 - x315 + x333 >= -72
 e547: - 72 b268 - x318 + x335 >= -72
 e548: - 72 b269 - x321 + x337 >= -72
 e549: 72 b262 - x279 + x331 <= 72
 e550: 72 b263 - x282 + x333 <= 72
 e551: 72 b264 - x285 + x335 <= 72
 e552: 72 b265 - x288 + x337 <= 72
 e553: 72 b270 - x290 + x339 <= 72
 e554: 72 b271 - x293 + x341 <= 72
 e555: 72 b272 - x296 + x343 <= 72
 e556: 72 b273 - x299 + x345 <= 72
 e557: 72 b274 - x301 + x339 <= 72
 e558: 72 b275 - x304 + x341 <= 72
 e559: 72 b276 - x307 + x343 <= 72
 e560: 72 b277 - x310 + x345 <= 72
 e561: 72 b266 - x312 + x331 <= 72
 e562: 72 b267 - x315 + x333 <= 72
 e563: 72 b268 - x318 + x335 <= 72
 e564: 72 b269 - x321 + x337 <= 72
 e565: x3 - x133 - x211 + x214 = 0
 e566: x4 - x136 - x214 + x217 = 0
 e567: x5 - x139 - x217 + x220 = 0
 e568: x7 - x109 - x212 + x215 = 0
 e569: x8 - x112 - x215 + x218 = 0
 e570: x9 - x115 - x218 + x221 = 0
 e571: x11 - x181 - x223 + x226 = 0
 e572: x12 - x184 - x226 + x229 = 0
 e573: x13 - x187 - x229 + x232 = 0
 e574: x15 - x157 - x224 + x227 = 0
 e575: x16 - x160 - x227 + x230 = 0
 e576: x17 - x163 - x230 + x233 = 0
 e577: x19 - x193 - x235 + x238 = 0
 e578: x20 - x196 - x238 + x241 = 0
 e579: x21 - x199 - x241 + x244 = 0
 e580: x23 - x169 - x236 + x239 = 0
 e581: x24 - x172 - x239 + x242 = 0
 e582: x25 - x175 - x242 + x245 = 0
 e583: x27 - x145 - x247 + x250 = 0
 e584: x28 - x148 - x250 + x253 = 0
 e585: x29 - x151 - x253 + x256 = 0
 e586: x31 - x121 - x248 + x251 = 0
 e587: x32 - x124 - x251 + x254 = 0
 e588: x33 - x127 - x254 + x257 = 0
 e589: x2 - x130 + x211 = 200
 e590: x6 - x106 + x212 = 100
 e591: x10 - x178 + x223 = 100
 e592: x14 - x154 + x224 = 200
 e593: x18 - x190 + x235 = 50
 e594: x22 - x166 + x236 = 200
 e595: x26 - x142 + x247 = 130
 e596: x30 - x118 + x248 = 170
 e597: - x330 + x331 - x332 + x333 - x334 + x335 - x336 + x337 = 72
 e598: - x338 + x339 - x340 + x341 - x342 + x343 - x344 + x345 = 72
 e599: x34 - b262 + b263 >= 0
 e600: x35 - b263 + b264 >= 0
 e601: x36 - b264 + b265 >= 0
 e602: x37 - b270 + b271 >= 0
 e603: x38 - b271 + b272 >= 0
 e604: x39 - b272 + b273 >= 0
 e605: x37 - b274 + b275 >= 0
 e606: x38 - b275 + b276 >= 0
 e607: x39 - b276 + b277 >= 0
 e608: x34 - b266 + b267 >= 0
 e609: x35 - b267 + b268 >= 0
 e610: x36 - b268 + b269 >= 0
 e611: x34 + b262 - b263 >= 0
 e612: x35 + b263 - b264 >= 0
 e613: x36 + b264 - b265 >= 0
 e614: x37 + b270 - b271 >= 0
 e615: x38 + b271 - b272 >= 0
 e616: x39 + b272 - b273 >= 0
 e617: x37 + b274 - b275 >= 0
 e618: x38 + b275 - b276 >= 0
 e619: x39 + b276 - b277 >= 0
 e620: x34 + b266 - b267 >= 0
 e621: x35 + b267 - b268 >= 0
 e622: x36 + b268 - b269 >= 0
 e623: x72 + 0.2 x210 + 0.2 x213 + 0.2 x216 + 0.2 x219 + 0.2 x222 + 0.2 x225 + 0.2 x228 + 0.2 x231 + 0.2 x234 
  + 0.2 x237 + 0.2 x240 + 0.2 x243 + 0.2 x246 + 0.2 x249 + 0.2 x252 + 0.2 x255 >= 970
 e624: x73 - 12.5 x209 >= -400
 e625: x3 + [ - x40 * x280 ] = 0
 e626: x4 + [ - x41 * x283 ] = 0
 e627: x5 + [ - x42 * x286 ] = 0
 e628: x7 + [ - x44 * x280 ] = 0
 e629: x8 + [ - x45 * x283 ] = 0
 e630: x9 + [ - x46 * x286 ] = 0
 e631: x11 + [ - x48 * x291 ] = 0
 e632: x12 + [ - x49 * x294 ] = 0
 e633: x13 + [ - x50 * x297 ] = 0
 e634: x15 + [ - x52 * x291 ] = 0
 e635: x16 + [ - x53 * x294 ] = 0
 e636: x17 + [ - x54 * x297 ] = 0
 e637: x19 + [ - x56 * x302 ] = 0
 e638: x20 + [ - x57 * x305 ] = 0
 e639: x21 + [ - x58 * x308 ] = 0
 e640: x23 + [ - x60 * x302 ] = 0
 e641: x24 + [ - x61 * x305 ] = 0
 e642: x25 + [ - x62 * x308 ] = 0
 e643: x27 + [ - x64 * x313 ] = 0
 e644: x28 + [ - x65 * x316 ] = 0
 e645: x29 + [ - x66 * x319 ] = 0
 e646: x31 + [ - x68 * x313 ] = 0
 e647: x32 + [ - x69 * x316 ] = 0
 e648: x33 + [ - x70 * x319 ] = 0
 e649: x211 + [ - x40 * x210 ] = 0
 e650: x214 + [ - x41 * x213 ] = 0
 e651: x217 + [ - x42 * x216 ] = 0
 e652: x220 + [ - x43 * x219 ] = 0
 e653: x212 + [ - x44 * x210 ] = 0
 e654: x215 + [ - x45 * x213 ] = 0
 e655: x218 + [ - x46 * x216 ] = 0
 e656: x221 + [ - x47 * x219 ] = 0
 e657: x223 + [ - x48 * x222 ] = 0
 e658: x226 + [ - x49 * x225 ] = 0
 e659: x229 + [ - x50 * x228 ] = 0
 e660: x232 + [ - x51 * x231 ] = 0
 e661: x224 + [ - x52 * x222 ] = 0
 e662: x227 + [ - x53 * x225 ] = 0
 e663: x230 + [ - x54 * x228 ] = 0
 e664: x233 + [ - x55 * x231 ] = 0
 e665: x235 + [ - x56 * x234 ] = 0
 e666: x238 + [ - x57 * x237 ] = 0
 e667: x241 + [ - x58 * x240 ] = 0
 e668: x244 + [ - x59 * x243 ] = 0
 e669: x236 + [ - x60 * x234 ] = 0
 e670: x239 + [ - x61 * x237 ] = 0
 e671: x242 + [ - x62 * x240 ] = 0
 e672: x245 + [ - x63 * x243 ] = 0
 e673: x247 + [ - x64 * x246 ] = 0
 e674: x250 + [ - x65 * x249 ] = 0
 e675: x253 + [ - x66 * x252 ] = 0
 e676: x256 + [ - x67 * x255 ] = 0
 e677: x248 + [ - x68 * x246 ] = 0
 e678: x251 + [ - x69 * x249 ] = 0
 e679: x254 + [ - x70 * x252 ] = 0
 e680: x257 + [ - x71 * x255 ] = 0

Bounds
 x34 <= 1
 x35 <= 1
 x36 <= 1
 x37 <= 1
 x38 <= 1
 x39 <= 1
 0.6451612903 <= x40 <= 0.8333333333
 0.04608294931 <= x41 <= 0.9523809524
 0.003291639236 <= x42 <= 0.9523809524
 0.0002351170883 <= x43 <= 0.9523809524
 0.1666666667 <= x44 <= 0.3548387097
 0.0119047619 <= x45 <= 0.4444444444
 0.0008503401361 <= x46 <= 0.4444444444
 6.073858115e-05 <= x47 <= 0.4444444444
 0.1666666667 <= x48 <= 0.6875
 0.0119047619 <= x49 <= 0.9145299145
 0.0008503401361 <= x50 <= 0.9145299145
 6.073858115e-05 <= x51 <= 0.9145299145
 0.3125 <= x52 <= 0.8333333333
 0.02232142857 <= x53 <= 0.9523809524
 0.001594387755 <= x54 <= 0.9523809524
 0.0001138848397 <= x55 <= 0.9523809524
 0.09090909091 <= x56 <= 0.6610169492
 0.005050505051 <= x57 <= 0.8974358974
 0.0002805836139 <= x58 <= 0.8974358974
 1.558797855e-05 <= x59 <= 0.8974358974
 0.3389830508 <= x60 <= 0.9090909091
 0.01883239171 <= x61 <= 0.9714285714
 0.001046243984 <= x62 <= 0.9714285714
 5.812466578e-05 <= x63 <= 0.9714285714
 0.4193548387 <= x64 <= 0.7166666667
 0.02995391705 <= x65 <= 0.919047619
 0.002139565504 <= x66 <= 0.919047619
 0.0001528261074 <= x67 <= 0.919047619
 0.2833333333 <= x68 <= 0.5806451613
 0.02023809524 <= x69 <= 0.6388888889
 0.001445578231 <= x70 <= 0.6388888889
 0.0001032555879 <= x71 <= 0.6388888889
 x72 <= 1200
 x106 <= 10
 x107 <= 72
 x108 <= 72
 x109 <= 10
 x110 <= 72
 x111 <= 72
 x112 <= 10
 x113 <= 72
 x114 <= 72
 x115 <= 10
 x116 <= 72
 x117 <= 72
 x118 <= 10
 x119 <= 72
 x120 <= 72
 x121 <= 10
 x122 <= 72
 x123 <= 72
 x124 <= 10
 x125 <= 72
 x126 <= 72
 x127 <= 10
 x128 <= 72
 x129 <= 72
 x130 <= 300
 x131 <= 72
 x132 <= 72
 x133 <= 300
 x134 <= 72
 x135 <= 72
 x136 <= 300
 x137 <= 72
 x138 <= 72
 x139 <= 300
 x140 <= 72
 x141 <= 72
 x142 <= 300
 x143 <= 72
 x144 <= 72
 x145 <= 300
 x146 <= 72
 x147 <= 72
 x148 <= 300
 x149 <= 72
 x150 <= 72
 x151 <= 300
 x152 <= 72
 x153 <= 72
 x154 <= 300
 x155 <= 72
 x156 <= 72
 x157 <= 300
 x158 <= 72
 x159 <= 72
 x160 <= 300
 x161 <= 72
 x162 <= 72
 x163 <= 300
 x164 <= 72
 x165 <= 72
 x166 <= 300
 x167 <= 72
 x168 <= 72
 x169 <= 300
 x170 <= 72
 x171 <= 72
 x172 <= 300
 x173 <= 72
 x174 <= 72
 x175 <= 300
 x176 <= 72
 x177 <= 72
 x178 <= 340
 x179 <= 72
 x180 <= 72
 x181 <= 340
 x182 <= 72
 x183 <= 72
 x184 <= 340
 x185 <= 72
 x186 <= 72
 x187 <= 340
 x188 <= 72
 x189 <= 72
 x190 <= 340
 x191 <= 72
 x192 <= 72
 x193 <= 340
 x194 <= 72
 x195 <= 72
 x196 <= 340
 x197 <= 72
 x198 <= 72
 x199 <= 340
 x200 <= 72
 x201 <= 72
 x202 <= 72
 x203 <= 72
 x204 <= 72
 x205 <= 72
 x206 <= 72
 x207 <= 72
 x208 <= 72
 x209 <= 72
 50 <= x210 <= 610
 50 <= x213 <= 700
 50 <= x216 <= 700
 50 <= x219 <= 700
 50 <= x222 <= 700
 50 <= x225 <= 700
 50 <= x228 <= 700
 50 <= x231 <= 700
 50 <= x234 <= 890
 50 <= x237 <= 900
 50 <= x240 <= 900
 50 <= x243 <= 900
 50 <= x246 <= 610
 50 <= x249 <= 700
 50 <= x252 <= 700
 50 <= x255 <= 700
 x258 <= 250
 x259 <= 250
 x260 <= 200
 x261 <= 250
 x278 <= 72
 x279 <= 72
 x280 <= 560
 x281 <= 72
 x282 <= 72
 x283 <= 650
 x284 <= 72
 x285 <= 72
 x286 <= 650
 x287 <= 72
 x288 <= 72
 x289 <= 72
 x290 <= 72
 x291 <= 650
 x292 <= 72
 x293 <= 72
 x294 <= 650
 x295 <= 72
 x296 <= 72
 x297 <= 650
 x298 <= 72
 x299 <= 72
 x300 <= 72
 x301 <= 72
 x302 <= 840
 x303 <= 72
 x304 <= 72
 x305 <= 850
 x306 <= 72
 x307 <= 72
 x308 <= 850
 x309 <= 72
 x310 <= 72
 x311 <= 72
 x312 <= 72
 x313 <= 560
 x314 <= 72
 x315 <= 72
 x316 <= 650
 x317 <= 72
 x318 <= 72
 x319 <= 650
 x320 <= 72
 x321 <= 72
 x330 <= 72
 x331 <= 72
 x332 <= 72
 x333 <= 72
 x334 <= 72
 x335 <= 72
 x336 <= 72
 x337 <= 72
 x338 <= 72
 x339 <= 72
 x340 <= 72
 x341 <= 72
 x342 <= 72
 x343 <= 72
 x344 <= 72
 x345 <= 72

Binary
 b74 b75 b76 b77 b78 b79 b80 b81 b82 b83 b84 b85 b86 b87 b88 b89 b90 b91 b92 b93 b94 b95 b96
 b97 b98 b99 b100 b101 b102 b103 b104 b105 b262 b263 b264 b265 b266 b267 b268 b269 b270 b271
 b272 b273 b274 b275 b276 b277

End
