\ Equation counts
\     Total        E        G        L        N        X        C        B
\        84       84        0        0        0        0        0        0
\ 
\ Variable counts
\                  x        b        i      s1s      s2s       sc       si
\     Total     cont   binary  integer     sos1     sos2    scont     sint
\       132      132        0        0        0        0        0        0
\ 
\ Nonzero counts
\     Total    const       NL      DLL
\       780      168      612        0
\ 
Minimize
 obj: x2 + x3 + x4 + x5 + x6 + x7 + x8 + x9 + x10 + x11 + x12 + x13 + 0 x14 + 0 x15 + 0 x16 + 0 x17 + 0 x18 
  + 0 x19 + 0 x20 + 0 x21 + 0 x22 + 0 x23 + 0 x24 + 0 x25 + 0 x26 + 0 x27 + 0 x28 + 0 x29 + 0 x30 + 0 x31 
  + 0 x32 + 0 x33 + 0 x34 + 0 x35 + 0 x36 + 0 x37 + 0 x38 + 0 x39 + 0 x40 + 0 x41 + 0 x42 + 0 x43 + 0 x44 
  + 0 x45 + 0 x46 + 0 x47 + 0 x48 + 0 x49 + 0 x50 + 0 x51 + 0 x52 + 0 x53 + 0 x54 + 0 x55 + 0 x56 + 0 x57 
  + 0 x58 + 0 x59 + 0 x60 + 0 x61 + 0 x62 + 0 x63 + 0 x64 + 0 x65 + 0 x66 + 0 x67 + 0 x68 + 0 x69 + 0 x70 
  + 0 x71 + 0 x72 + 0 x73 + 0 x74 + 0 x75 + 0 x76 + 0 x77 + 0 x78 + 0 x79 + 0 x80 + 0 x81 + 0 x82 + 0 x83 
  + 0 x84 + 0 x85 + 0 x86 + 0 x87 + 0 x88 + 0 x89 + 0 x90 + 0 x91 + 0 x92 + 0 x93 + 0 x94 + 0 x95 + 0 x96 
  + 0 x97 + 0 x98 + 0 x99 + 0 x100 + 0 x101 + 0 x102 + 0 x103 + 0 x104 + 0 x105 + 0 x106 + 0 x107 + 0 x108 
  + 0 x109 + 0 x110 + 0 x111 + 0 x112 + 0 x113 + 0 x114 + 0 x115 + 0 x116 + 0 x117 + 0 x118 + 0 x119 
  + 0 x120 + 0 x121 + 0 x122 + 0 x123 + 0 x124 + 0 x125 + 0 x126 + 0 x127 + 0 x128 + 0 x129 + 0 x130 
  + 0 x131 + 0 x132 + 0 x133

Subject To
 e2: - x2 - x8 + x86 - x87 - x88 - x89 - x90 - x91 - x92 = 0
 e3: - x3 - x9 + x93 - x94 - x95 - x96 - x97 - x98 - x99 = 0
 e4: - x4 - x10 + x100 - x101 - x102 - x103 - x104 - x105 - x106 = 0
 e5: - x5 - x11 + x107 - x108 - x109 - x110 - x111 - x112 - x113 = 0
 e6: - x6 - x12 + x114 - x115 - x116 - x117 - x118 - x119 - x120 = 0
 e7: - x7 - x13 + x121 - x122 - x123 - x124 - x125 - x126 - x127 = 0
 e8: x86 - x87 - x94 - x101 - x108 - x115 - x122 - x128 = 0
 e9: - x88 + x93 - x95 - x102 - x109 - x116 - x123 - x129 = 0
 e10: - x89 - x96 + x100 - x103 - x110 - x117 - x124 - x130 = 0
 e11: - x90 - x97 - x104 + x107 - x111 - x118 - x125 - x131 = 0
 e12: - x91 - x98 - x105 - x112 + x114 - x119 - x126 - x132 = 0
 e13: - x92 - x99 - x106 - x113 - x120 + x121 - x127 - x133 = 0
 e14: - 4 x2 - 4 x8 + [ x14 * x86 - x50 * x87 - x56 * x88 - x62 * x89 - x68 * x90 - x74 * x91 - x80 * x92 
  ] = 0
 e15: - 5 x2 - 6 x8 + [ x15 * x86 - x51 * x87 - x57 * x88 - x63 * x89 - x69 * x90 - x75 * x91 - x81 * x92 
  ] = 0
 e16: - 2 x8 + [ x16 * x86 - x52 * x87 - x58 * x88 - x64 * x89 - x70 * x90 - x76 * x91 - x82 * x92 ] = 
  0
 e17: - 8 x2 - 7 x8 + [ x17 * x86 - x53 * x87 - x59 * x88 - x65 * x89 - x71 * x90 - x77 * x91 - x83 * x92 
  ] = 0
 e18: - 2 x8 + [ x18 * x86 - x54 * x87 - x60 * x88 - x66 * x89 - x72 * x90 - x78 * x91 - x84 * x92 ] = 
  0
 e19: - 4 x2 + [ x19 * x86 - x55 * x87 - x61 * x88 - x67 * x89 - x73 * x90 - x79 * x91 - x85 * x92 ] = 
  0
 e20: - 4 x3 - 4 x9 + [ x20 * x93 - x50 * x94 - x56 * x95 - x62 * x96 - x68 * x97 - x74 * x98 - x80 * x99 
  ] = 0
 e21: - 5 x3 - 6 x9 + [ x21 * x93 - x51 * x94 - x57 * x95 - x63 * x96 - x69 * x97 - x75 * x98 - x81 * x99 
  ] = 0
 e22: - 2 x9 + [ x22 * x93 - x52 * x94 - x58 * x95 - x64 * x96 - x70 * x97 - x76 * x98 - x82 * x99 ] = 
  0
 e23: - 8 x3 - 7 x9 + [ x23 * x93 - x53 * x94 - x59 * x95 - x65 * x96 - x71 * x97 - x77 * x98 - x83 * x99 
  ] = 0
 e24: - 2 x9 + [ x24 * x93 - x54 * x94 - x60 * x95 - x66 * x96 - x72 * x97 - x78 * x98 - x84 * x99 ] = 
  0
 e25: - 4 x3 + [ x25 * x93 - x55 * x94 - x61 * x95 - x67 * x96 - x73 * x97 - x79 * x98 - x85 * x99 ] = 
  0
 e26: - 4 x4 - 4 x10 + [ x26 * x100 - x50 * x101 - x56 * x102 - x62 * x103 - x68 * x104 - x74 * x105 
  - x80 * x106 ] = 0
 e27: - 5 x4 - 6 x10 + [ x27 * x100 - x51 * x101 - x57 * x102 - x63 * x103 - x69 * x104 - x75 * x105 
  - x81 * x106 ] = 0
 e28: - 2 x10 + [ x28 * x100 - x52 * x101 - x58 * x102 - x64 * x103 - x70 * x104 - x76 * x105 - x82 * x106 
  ] = 0
 e29: - 8 x4 - 7 x10 + [ x29 * x100 - x53 * x101 - x59 * x102 - x65 * x103 - x71 * x104 - x77 * x105 
  - x83 * x106 ] = 0
 e30: - 2 x10 + [ x30 * x100 - x54 * x101 - x60 * x102 - x66 * x103 - x72 * x104 - x78 * x105 - x84 * x106 
  ] = 0
 e31: - 4 x4 + [ x31 * x100 - x55 * x101 - x61 * x102 - x67 * x103 - x73 * x104 - x79 * x105 - x85 * x106 
  ] = 0
 e32: - 4 x5 - 4 x11 + [ x32 * x107 - x50 * x108 - x56 * x109 - x62 * x110 - x68 * x111 - x74 * x112 
  - x80 * x113 ] = 0
 e33: - 5 x5 - 6 x11 + [ x33 * x107 - x51 * x108 - x57 * x109 - x63 * x110 - x69 * x111 - x75 * x112 
  - x81 * x113 ] = 0
 e34: - 2 x11 + [ x34 * x107 - x52 * x108 - x58 * x109 - x64 * x110 - x70 * x111 - x76 * x112 - x82 * x113 
  ] = 0
 e35: - 8 x5 - 7 x11 + [ x35 * x107 - x53 * x108 - x59 * x109 - x65 * x110 - x71 * x111 - x77 * x112 
  - x83 * x113 ] = 0
 e36: - 2 x11 + [ x36 * x107 - x54 * x108 - x60 * x109 - x66 * x110 - x72 * x111 - x78 * x112 - x84 * x113 
  ] = 0
 e37: - 4 x5 + [ x37 * x107 - x55 * x108 - x61 * x109 - x67 * x110 - x73 * x111 - x79 * x112 - x85 * x113 
  ] = 0
 e38: - 4 x6 - 4 x12 + [ x38 * x114 - x50 * x115 - x56 * x116 - x62 * x117 - x68 * x118 - x74 * x119 
  - x80 * x120 ] = 0
 e39: - 5 x6 - 6 x12 + [ x39 * x114 - x51 * x115 - x57 * x116 - x63 * x117 - x69 * x118 - x75 * x119 
  - x81 * x120 ] = 0
 e40: - 2 x12 + [ x40 * x114 - x52 * x115 - x58 * x116 - x64 * x117 - x70 * x118 - x76 * x119 - x82 * x120 
  ] = 0
 e41: - 8 x6 - 7 x12 + [ x41 * x114 - x53 * x115 - x59 * x116 - x65 * x117 - x71 * x118 - x77 * x119 
  - x83 * x120 ] = 0
 e42: - 2 x12 + [ x42 * x114 - x54 * x115 - x60 * x116 - x66 * x117 - x72 * x118 - x78 * x119 - x84 * x120 
  ] = 0
 e43: - 4 x6 + [ x43 * x114 - x55 * x115 - x61 * x116 - x67 * x117 - x73 * x118 - x79 * x119 - x85 * x120 
  ] = 0
 e44: - 4 x7 - 4 x13 + [ x44 * x121 - x50 * x122 - x56 * x123 - x62 * x124 - x68 * x125 - x74 * x126 
  - x80 * x127 ] = 0
 e45: - 5 x7 - 6 x13 + [ x45 * x121 - x51 * x122 - x57 * x123 - x63 * x124 - x69 * x125 - x75 * x126 
  - x81 * x127 ] = 0
 e46: - 2 x13 + [ x46 * x121 - x52 * x122 - x58 * x123 - x64 * x124 - x70 * x125 - x76 * x126 - x82 * x127 
  ] = 0
 e47: - 8 x7 - 7 x13 + [ x47 * x121 - x53 * x122 - x59 * x123 - x65 * x124 - x71 * x125 - x77 * x126 
  - x83 * x127 ] = 0
 e48: - 2 x13 + [ x48 * x121 - x54 * x122 - x60 * x123 - x66 * x124 - x72 * x125 - x78 * x126 - x84 * x127 
  ] = 0
 e49: - 4 x7 + [ x49 * x121 - x55 * x122 - x61 * x123 - x67 * x124 - x73 * x125 - x79 * x126 - x85 * x127 
  ] = 0
 e50: [ x14 * x86 - x50 * x86 ] = -6016
 e51: [ x15 * x86 - x51 * x86 ] = -22272
 e52: [ x16 * x86 - x52 * x86 ] = -15744
 e53: [ x17 * x86 - x53 * x86 ] = -256
 e54: [ x18 * x86 - x54 * x86 ] = -10752
 e55: [ x19 * x86 - x55 * x86 ] = -6400
 e56: [ x20 * x93 - x56 * x93 ] = -4250
 e57: [ x21 * x93 - x57 * x93 ] = -3230
 e58: [ x22 * x93 - x58 * x93 ] = -1870
 e59: [ x23 * x93 - x59 * x93 ] = -84796
 e60: [ x24 * x93 - x60 * x93 ] = -884
 e61: [ x25 * x93 - x61 * x93 ] = -3332
 e62: [ x26 * x100 - x62 * x100 ] = -10080
 e63: [ x27 * x100 - x63 * x100 ] = -4914
 e64: [ x28 * x100 - x64 * x100 ] = -46242
 e65: [ x29 * x100 - x65 * x100 ] = -5418
 e66: [ x30 * x100 - x66 * x100 ] = -16506
 e67: [ x31 * x100 - x67 * x100 ] = -4284
 e68: [ x32 * x107 - x68 * x107 ] = -756
 e69: [ x33 * x107 - x69 * x107 ] = -9576
 e70: [ x34 * x107 - x70 * x107 ] = -8540
 e71: [ x35 * x107 - x71 * x107 ] = -11424
 e72: [ x36 * x107 - x72 * x107 ] = -3780
 e73: [ x37 * x107 - x73 * x107 ] = -5908
 e74: [ x38 * x114 - x74 * x114 ] = -50000
 e75: [ x39 * x114 - x75 * x114 ] = -351200
 e76: [ x40 * x114 - x76 * x114 ] = -14000
 e77: [ x41 * x114 - x77 * x114 ] = -3500
 e78: [ x42 * x114 - x78 * x114 ] = -15800
 e79: [ x43 * x114 - x79 * x114 ] = -7800
 e80: [ x44 * x121 - x80 * x121 ] = -4400
 e81: [ x45 * x121 - x81 * x121 ] = -5500
 e82: [ x46 * x121 - x82 * x121 ] = -8250
 e83: [ x47 * x121 - x83 * x121 ] = -3300
 e84: [ x48 * x121 - x84 * x121 ] = -4400
 e85: [ x49 * x121 - x85 * x121 ] = -3300

Bounds
 x2 <= 100000
 x3 <= 100000
 x4 <= 100000
 x5 <= 100000
 x6 <= 100000
 x7 <= 100000
 x8 <= 100000
 x9 <= 100000
 x10 <= 100000
 x11 <= 100000
 x12 <= 100000
 x13 <= 100000
 x14 <= 45
 x15 <= 52
 x16 <= 189
 x17 <= 33
 x18 <= 210
 x19 <= 24
 x20 <= 120
 x21 <= 30
 x22 <= 30
 x23 <= 12234
 x24 <= 98
 x25 <= 656
 x26 <= 142
 x27 <= 420
 x28 <= 200
 x29 <= 13
 x30 <= 637
 x31 <= 24
 x32 <= 20
 x33 <= 25
 x34 <= 15
 x35 <= 25
 x36 <= 454
 x37 <= 256
 x38 <= 350
 x39 <= 48
 x40 <= 260
 x41 <= 21
 x42 <= 278
 x43 <= 12
 x44 <= 20
 x45 <= 50
 x46 <= 100
 x47 <= 30
 x48 <= 70
 x49 <= 20
 x50 <= 139
 x51 <= 400
 x52 <= 435
 x53 <= 37
 x54 <= 378
 x55 <= 124
 x56 <= 245
 x57 <= 125
 x58 <= 85
 x59 <= 14728
 x60 <= 124
 x61 <= 754
 x62 <= 222
 x63 <= 459
 x64 <= 567
 x65 <= 56
 x66 <= 768
 x67 <= 58
 x68 <= 47
 x69 <= 367
 x70 <= 320
 x71 <= 433
 x72 <= 589
 x73 <= 467
 x74 <= 850
 x75 <= 3560
 x76 <= 400
 x77 <= 56
 x78 <= 436
 x79 <= 90
 x80 <= 100
 x81 <= 150
 x82 <= 250
 x83 <= 90
 x84 <= 150
 x85 <= 80
 x86 <= 64
 x87 <= 100000
 x88 <= 100000
 x89 <= 100000
 x90 <= 100000
 x91 <= 100000
 x92 <= 100000
 x93 <= 34
 x94 <= 100000
 x95 <= 100000
 x96 <= 100000
 x97 <= 100000
 x98 <= 100000
 x99 <= 100000
 x100 <= 126
 x101 <= 100000
 x102 <= 100000
 x103 <= 100000
 x104 <= 100000
 x105 <= 100000
 x106 <= 100000
 x107 <= 28
 x108 <= 100000
 x109 <= 100000
 x110 <= 100000
 x111 <= 100000
 x112 <= 100000
 x113 <= 100000
 x114 <= 100
 x115 <= 100000
 x116 <= 100000
 x117 <= 100000
 x118 <= 100000
 x119 <= 100000
 x120 <= 100000
 x121 <= 55
 x122 <= 100000
 x123 <= 100000
 x124 <= 100000
 x125 <= 100000
 x126 <= 100000
 x127 <= 100000
 x128 <= 100000
 x129 <= 100000
 x130 <= 100000
 x131 <= 100000
 x132 <= 100000
 x133 <= 100000

End
