\ Equation counts
\     Total        E        G        L        N        X        C        B
\       251      243        0        8        0        0        0        0
\ 
\ Variable counts
\                  x        b        i      s1s      s2s       sc       si
\     Total     cont   binary  integer     sos1     sos2    scont     sint
\       303      303        0        0        0        0        0        0
\ 
\ Nonzero counts
\     Total    const       NL      DLL
\      1104      880      224        0
\ 
Minimize
 obj: x2 + x3 + x4 + x5 + x6 + x7 + x8 + 0 x9 + 0 x10 + 0 x11 + 0 x12 + 0 x13 + 0 x14 + 0 x15 + 0 x16 
  + 0 x17 + 0 x18 + 0 x19 + 0 x20 + 0 x21 + 0 x22 + 0 x23 + 0 x24 + 0 x25 + 0 x26 + 0 x27 + 0 x28 + 0 x29 
  + 0 x30 + 0 x31 + 0 x32 + 0 x33 + 0 x34 + 0 x35 + 0 x36 + 0 x37 + 0 x38 + 0 x39 + 0 x40 + 0 x41 + 0 x42 
  + 0 x43 + 0 x44 + 0 x45 + 0 x46 + 0 x47 + 0 x48 + 0 x49 + 0 x50 + 0 x51 + 0 x52 + 0 x53 + 0 x54 + 0 x55 
  + 0 x56 + 0 x57 + 0 x58 + 0 x59 + 0 x60 + 0 x61 + 0 x62 + 0 x63 + 0 x64 + 0 x65 + 0 x66 + 0 x67 + 0 x68 
  + 0 x69 + 0 x70 + 0 x71 + 0 x72 + 0 x73 + 0 x74 + 0 x75 + 0 x76 + 0 x77 + 0 x78 + 0 x79 + 0 x80 + 0 x81 
  + 0 x82 + 0 x83 + 0 x84 + 0 x85 + 0 x86 + 0 x87 + 0 x88 + 0 x89 + 0 x90 + 0 x91 + 0 x92 + 0 x93 + 0 x94 
  + 0 x95 + 0 x96 + 0 x97 + 0 x98 + 0 x99 + 0 x100 + 0 x101 + 0 x102 + 0 x103 + 0 x104 + 0 x105 + 0 x106 
  + 0 x107 + 0 x108 + 0 x109 + 0 x110 + 0 x111 + 0 x112 + 0 x113 + 0 x114 + 0 x115 + 0 x116 + 0 x117 
  + 0 x118 + 0 x119 + 0 x120 + 0 x121 + 0 x122 + 0 x123 + 0 x124 + 0 x125 + 0 x126 + 0 x127 + 0 x128 
  + 0 x129 + 0 x130 + 0 x131 + 0 x132 + 0 x133 + 0 x134 + 0 x135 + 0 x136 + 0 x137 + 0 x138 + 0 x139 
  + 0 x140 + 0 x141 + 0 x142 + 0 x143 + 0 x144 + 0 x145 + 0 x146 + 0 x147 + 0 x148 + 0 x149 + 0 x150 
  + 0 x151 + 0 x152 + 0 x153 + 0 x154 + 0 x155 + 0 x156 + 0 x157 + 0 x158 + 0 x159 + 0 x160 + 0 x161 
  + 0 x162 + 0 x163 + 0 x164 + 0 x165 + 0 x166 + 0 x167 + 0 x168 + 0 x169 + 0 x170 + 0 x171 + 0 x172 
  + 0 x173 + 0 x174 + 0 x175 + 0 x176 + 0 x177 + 0 x178 + 0 x179 + 0 x180 + 0 x181 + 0 x182 + 0 x183 
  + 0 x184 + 0 x185 + 0 x186 + 0 x187 + 0 x188 + 0 x189 + 0 x190 + 0 x191 + 0 x192 + 0 x193 + 0 x194 
  + 0 x195 + 0 x196 + 0 x197 + 0 x198 + 0 x199 + 0 x200 + 0 x201 + 0 x202 + 0 x203 + 0 x204 + 0 x205 
  + 0 x206 + 0 x207 + 0 x208 + 0 x209 + 0 x210 + 0 x211 + 0 x212 + 0 x213 + 0 x214 + 0 x215 + 0 x216 
  + 0 x217 + 0 x218 + 0 x219 + 0 x220 + 0 x221 + 0 x222 + 0 x223 + 0 x224 + 0 x225 + 0 x226 + 0 x227 
  + 0 x228 + 0 x229 + 0 x230 + 0 x231 + 0 x232 + 0 x233 + 0 x234 + 0 x235 + 0 x236 + 0 x237 + 0 x238 
  + 0 x239 + 0 x240 + 0 x241 + 0 x242 + 0 x243 + 0 x244 + 0 x245 + 0 x246 + 0 x247 + 0 x248 + 0 x249 
  + 0 x250 + 0 x251 + 0 x252 + 0 x253 + 0 x254 + 0 x255 + 0 x256 + 0 x257 + 0 x258 + 0 x259 + 0 x260 
  + 0 x261 + 0 x262 + 0 x263 + 0 x264 + 0 x265 + 0 x266 + 0 x267 + 0 x268 + 0 x269 + 0 x270 + 0 x271 
  + 0 x272 + 0 x273 + 0 x274 + 0 x275 + 0 x276 + 0 x277 + 0 x278 + 0 x279 + 0 x280 + 0 x281 + 0 x282 
  + 0 x283 + 0 x284 + 0 x285 + 0 x286 + 0 x287 + 0 x288 + 0 x289 + 0 x290 + 0 x291 + 0 x292 + 0 x293 
  + 0 x294 + 0 x295 + 0 x296 + 0 x297 + 0 x298 + 0 x299 + 0 x300 + 0 x301 + 0 x302 + 0 x303 + 0 x304

Subject To
 e2: - x9 - x10 - x11 - x12 - x13 - x14 - x15 - x16 = -80
 e3: - x17 - x18 - x19 - x20 - x21 - x22 - x23 - x24 = -450
 e4: - x25 - x26 - x27 - x28 - x29 - x30 - x31 - x32 = -230
 e5: - x33 - x34 - x35 - x36 - x37 - x38 - x39 - x40 = -90
 e6: - x41 - x42 - x43 - x44 - x45 - x46 - x47 - x48 = -330
 e7: x2 - x10 - x18 - x26 - x34 - x42 - x49 - x50 - x51 - x52 - x53 - x54 - x55 = 0
 e8: x3 - x11 - x19 - x27 - x35 - x43 - x56 - x57 - x58 - x59 - x60 - x61 - x62 = 0
 e9: x4 - x12 - x20 - x28 - x36 - x44 - x63 - x64 - x65 - x66 - x67 - x68 - x69 = 0
 e10: x5 - x13 - x21 - x29 - x37 - x45 - x70 - x71 - x72 - x73 - x74 - x75 - x76 = 0
 e11: x6 - x14 - x22 - x30 - x38 - x46 - x77 - x78 - x79 - x80 - x81 - x82 - x83 = 0
 e12: x7 - x15 - x23 - x31 - x39 - x47 - x84 - x85 - x86 - x87 - x88 - x89 - x90 = 0
 e13: x8 - x16 - x24 - x32 - x40 - x48 - x91 - x92 - x93 - x94 - x95 - x96 - x97 = 0
 e14: x2 - x49 - x56 - x63 - x70 - x77 - x84 - x91 - x98 = 0
 e15: x3 - x50 - x57 - x64 - x71 - x78 - x85 - x92 - x99 = 0
 e16: x4 - x51 - x58 - x65 - x72 - x79 - x86 - x93 - x100 = 0
 e17: x5 - x52 - x59 - x66 - x73 - x80 - x87 - x94 - x101 = 0
 e18: x6 - x53 - x60 - x67 - x74 - x81 - x88 - x95 - x102 = 0
 e19: x7 - x54 - x61 - x68 - x75 - x82 - x89 - x96 - x103 = 0
 e20: x8 - x55 - x62 - x69 - x76 - x83 - x90 - x97 - x104 = 0
 e21: - x9 - x17 - x25 - x33 - x41 - x98 - x99 - x100 - x101 - x102 - x103 - x104 + x105 = 0
 e22: - x106 - x107 - x108 - x109 - x110 - x111 - x112 - x113 = -960
 e23: - x114 - x115 - x116 - x117 - x118 - x119 - x120 - x121 = -22500
 e24: - x122 - x123 - x124 - x125 - x126 - x127 - x128 - x129 = -115000
 e25: - x130 - x131 - x132 - x133 - x134 - x135 - x136 - x137 = -36000
 e26: - x138 - x139 - x140 - x141 - x142 - x143 - x144 - x145 = -39600
 e27: - x107 + 960 x146 = 0
 e28: - x108 + 960 x147 = 0
 e29: - x109 + 960 x148 = 0
 e30: - x110 + 960 x149 = 0
 e31: - x111 + 960 x150 = 0
 e32: - x112 + 960 x151 = 0
 e33: - x113 + 960 x152 = 0
 e34: - x115 + 22500 x153 = 0
 e35: - x116 + 22500 x154 = 0
 e36: - x117 + 22500 x155 = 0
 e37: - x118 + 22500 x156 = 0
 e38: - x119 + 22500 x157 = 0
 e39: - x120 + 22500 x158 = 0
 e40: - x121 + 22500 x159 = 0
 e41: - x123 + 115000 x160 = 0
 e42: - x124 + 115000 x161 = 0
 e43: - x125 + 115000 x162 = 0
 e44: - x126 + 115000 x163 = 0
 e45: - x127 + 115000 x164 = 0
 e46: - x128 + 115000 x165 = 0
 e47: - x129 + 115000 x166 = 0
 e48: - x131 + 36000 x167 = 0
 e49: - x132 + 36000 x168 = 0
 e50: - x133 + 36000 x169 = 0
 e51: - x134 + 36000 x170 = 0
 e52: - x135 + 36000 x171 = 0
 e53: - x136 + 36000 x172 = 0
 e54: - x137 + 36000 x173 = 0
 e55: - x139 + 39600 x174 = 0
 e56: - x140 + 39600 x175 = 0
 e57: - x141 + 39600 x176 = 0
 e58: - x142 + 39600 x177 = 0
 e59: - x143 + 39600 x178 = 0
 e60: - x144 + 39600 x179 = 0
 e61: - x145 + 39600 x180 = 0
 e62: - x106 + 960 x181 = 0
 e63: - x114 + 22500 x182 = 0
 e64: - x122 + 115000 x183 = 0
 e65: - x130 + 36000 x184 = 0
 e66: - x138 + 39600 x185 = 0
 e67: - x10 + 80 x146 = 0
 e68: - x11 + 80 x147 = 0
 e69: - x12 + 80 x148 = 0
 e70: - x13 + 80 x149 = 0
 e71: - x14 + 80 x150 = 0
 e72: - x15 + 80 x151 = 0
 e73: - x16 + 80 x152 = 0
 e74: - x18 + 450 x153 = 0
 e75: - x19 + 450 x154 = 0
 e76: - x20 + 450 x155 = 0
 e77: - x21 + 450 x156 = 0
 e78: - x22 + 450 x157 = 0
 e79: - x23 + 450 x158 = 0
 e80: - x24 + 450 x159 = 0
 e81: - x26 + 230 x160 = 0
 e82: - x27 + 230 x161 = 0
 e83: - x28 + 230 x162 = 0
 e84: - x29 + 230 x163 = 0
 e85: - x30 + 230 x164 = 0
 e86: - x31 + 230 x165 = 0
 e87: - x32 + 230 x166 = 0
 e88: - x34 + 90 x167 = 0
 e89: - x35 + 90 x168 = 0
 e90: - x36 + 90 x169 = 0
 e91: - x37 + 90 x170 = 0
 e92: - x38 + 90 x171 = 0
 e93: - x39 + 90 x172 = 0
 e94: - x40 + 90 x173 = 0
 e95: - x42 + 330 x174 = 0
 e96: - x43 + 330 x175 = 0
 e97: - x44 + 330 x176 = 0
 e98: - x45 + 330 x177 = 0
 e99: - x46 + 330 x178 = 0
 e100: - x47 + 330 x179 = 0
 e101: - x48 + 330 x180 = 0
 e102: - x9 + 80 x181 = 0
 e103: - x17 + 450 x182 = 0
 e104: - x25 + 230 x183 = 0
 e105: - x33 + 90 x184 = 0
 e106: - x41 + 330 x185 = 0
 e107: x146 + x147 + x148 + x149 + x150 + x151 + x152 + x181 = 1
 e108: x153 + x154 + x155 + x156 + x157 + x158 + x159 + x182 = 1
 e109: x160 + x161 + x162 + x163 + x164 + x165 + x166 + x183 = 1
 e110: x167 + x168 + x169 + x170 + x171 + x172 + x173 + x184 = 1
 e111: x174 + x175 + x176 + x177 + x178 + x179 + x180 + x185 = 1
 e112: - 400 x2 + x107 + x115 + x123 + x131 + x139 + x186 + x187 + x188 + x189 + x190 + x191 + x192 <= 
  0
 e113: - 100 x3 + x108 + x116 + x124 + x132 + x140 + x193 + x194 + x195 + x196 + x197 + x198 + x199 <= 
  0
 e114: - 50 x4 + x109 + x117 + x125 + x133 + x141 + x200 + x201 + x202 + x203 + x204 + x205 + x206 <= 
  0
 e115: - 570 x5 + x110 + x118 + x126 + x134 + x142 + x207 + x208 + x209 + x210 + x211 + x212 + x213 <= 
  0
 e116: - 100 x6 + x111 + x119 + x127 + x135 + x143 + x214 + x215 + x216 + x217 + x218 + x219 + x220 <= 
  0
 e117: - 30 x7 + x112 + x120 + x128 + x136 + x144 + x221 + x222 + x223 + x224 + x225 + x226 + x227 <= 
  0
 e118: - 640 x8 + x113 + x121 + x129 + x137 + x145 + x228 + x229 + x230 + x231 + x232 + x233 + x234 <= 
  0
 e119: 0.9 x107 + 0.9 x115 + 0.9 x123 + 0.9 x131 + 0.9 x139 + 0.9 x186 + 0.9 x187 + 0.9 x188 + 0.9 x189 
  + 0.9 x190 + 0.9 x191 + 0.9 x192 - x235 = 0
 e120: 0.6 x108 + 0.6 x116 + 0.6 x124 + 0.6 x132 + 0.6 x140 + 0.6 x193 + 0.6 x194 + 0.6 x195 + 0.6 x196 
  + 0.6 x197 + 0.6 x198 + 0.6 x199 - x236 = 0
 e121: 0.15 x109 + 0.15 x117 + 0.15 x125 + 0.15 x133 + 0.15 x141 + 0.15 x200 + 0.15 x201 + 0.15 x202 
  + 0.15 x203 + 0.15 x204 + 0.15 x205 + 0.15 x206 - x237 = 0
 e122: 0.26 x110 + 0.26 x118 + 0.26 x126 + 0.26 x134 + 0.26 x142 + 0.26 x207 + 0.26 x208 + 0.26 x209 
  + 0.26 x210 + 0.26 x211 + 0.26 x212 + 0.26 x213 - x238 = 0
 e123: 0.1 x111 + 0.1 x119 + 0.1 x127 + 0.1 x135 + 0.1 x143 + 0.1 x214 + 0.1 x215 + 0.1 x216 + 0.1 x217 
  + 0.1 x218 + 0.1 x219 + 0.1 x220 - x239 = 0
 e124: 0.4 x112 + 0.4 x120 + 0.4 x128 + 0.4 x136 + 0.4 x144 + 0.4 x221 + 0.4 x222 + 0.4 x223 + 0.4 x224 
  + 0.4 x225 + 0.4 x226 + 0.4 x227 - x240 = 0
 e125: 0.3 x113 + 0.3 x121 + 0.3 x129 + 0.3 x137 + 0.3 x145 + 0.3 x228 + 0.3 x229 + 0.3 x230 + 0.3 x231 
  + 0.3 x232 + 0.3 x233 + 0.3 x234 - x241 = 0
 e126: - x186 - x193 - x200 - x207 - x214 - x221 - x228 + x235 - x242 = 0
 e127: - x187 - x194 - x201 - x208 - x215 - x222 - x229 + x236 - x243 = 0
 e128: - x188 - x195 - x202 - x209 - x216 - x223 - x230 + x237 - x244 = 0
 e129: - x189 - x196 - x203 - x210 - x217 - x224 - x231 + x238 - x245 = 0
 e130: - x190 - x197 - x204 - x211 - x218 - x225 - x232 + x239 - x246 = 0
 e131: - x191 - x198 - x205 - x212 - x219 - x226 - x233 + x240 - x247 = 0
 e132: - x192 - x199 - x206 - x213 - x220 - x227 - x234 + x241 - x248 = 0
 e133: x249 + x250 + x251 + x252 + x253 + x254 + x255 + x256 = 1
 e134: x257 + x258 + x259 + x260 + x261 + x262 + x263 + x264 = 1
 e135: x265 + x266 + x267 + x268 + x269 + x270 + x271 + x272 = 1
 e136: x273 + x274 + x275 + x276 + x277 + x278 + x279 + x280 = 1
 e137: x281 + x282 + x283 + x284 + x285 + x286 + x287 + x288 = 1
 e138: x289 + x290 + x291 + x292 + x293 + x294 + x295 + x296 = 1
 e139: x297 + x298 + x299 + x300 + x301 + x302 + x303 + x304 = 1
 e140: - 4 x105 + x106 + x114 + x122 + x130 + x138 + x242 + x243 + x244 + x245 + x246 + x247 + x248 <= 
  0
 e141: - x186 + [ x235 * x249 ] = 0
 e142: - x193 + [ x235 * x250 ] = 0
 e143: - x200 + [ x235 * x251 ] = 0
 e144: - x207 + [ x235 * x252 ] = 0
 e145: - x214 + [ x235 * x253 ] = 0
 e146: - x221 + [ x235 * x254 ] = 0
 e147: - x228 + [ x235 * x255 ] = 0
 e148: - x187 + [ x236 * x257 ] = 0
 e149: - x194 + [ x236 * x258 ] = 0
 e150: - x201 + [ x236 * x259 ] = 0
 e151: - x208 + [ x236 * x260 ] = 0
 e152: - x215 + [ x236 * x261 ] = 0
 e153: - x222 + [ x236 * x262 ] = 0
 e154: - x229 + [ x236 * x263 ] = 0
 e155: - x188 + [ x237 * x265 ] = 0
 e156: - x195 + [ x237 * x266 ] = 0
 e157: - x202 + [ x237 * x267 ] = 0
 e158: - x209 + [ x237 * x268 ] = 0
 e159: - x216 + [ x237 * x269 ] = 0
 e160: - x223 + [ x237 * x270 ] = 0
 e161: - x230 + [ x237 * x271 ] = 0
 e162: - x189 + [ x238 * x273 ] = 0
 e163: - x196 + [ x238 * x274 ] = 0
 e164: - x203 + [ x238 * x275 ] = 0
 e165: - x210 + [ x238 * x276 ] = 0
 e166: - x217 + [ x238 * x277 ] = 0
 e167: - x224 + [ x238 * x278 ] = 0
 e168: - x231 + [ x238 * x279 ] = 0
 e169: - x190 + [ x239 * x281 ] = 0
 e170: - x197 + [ x239 * x282 ] = 0
 e171: - x204 + [ x239 * x283 ] = 0
 e172: - x211 + [ x239 * x284 ] = 0
 e173: - x218 + [ x239 * x285 ] = 0
 e174: - x225 + [ x239 * x286 ] = 0
 e175: - x232 + [ x239 * x287 ] = 0
 e176: - x191 + [ x240 * x289 ] = 0
 e177: - x198 + [ x240 * x290 ] = 0
 e178: - x205 + [ x240 * x291 ] = 0
 e179: - x212 + [ x240 * x292 ] = 0
 e180: - x219 + [ x240 * x293 ] = 0
 e181: - x226 + [ x240 * x294 ] = 0
 e182: - x233 + [ x240 * x295 ] = 0
 e183: - x192 + [ x241 * x297 ] = 0
 e184: - x199 + [ x241 * x298 ] = 0
 e185: - x206 + [ x241 * x299 ] = 0
 e186: - x213 + [ x241 * x300 ] = 0
 e187: - x220 + [ x241 * x301 ] = 0
 e188: - x227 + [ x241 * x302 ] = 0
 e189: - x234 + [ x241 * x303 ] = 0
 e190: - x242 + [ x235 * x256 ] = 0
 e191: - x243 + [ x236 * x264 ] = 0
 e192: - x244 + [ x237 * x272 ] = 0
 e193: - x245 + [ x238 * x280 ] = 0
 e194: - x246 + [ x239 * x288 ] = 0
 e195: - x247 + [ x240 * x296 ] = 0
 e196: - x248 + [ x241 * x304 ] = 0
 e197: - x49 + [ x2 * x249 ] = 0
 e198: - x56 + [ x2 * x250 ] = 0
 e199: - x63 + [ x2 * x251 ] = 0
 e200: - x70 + [ x2 * x252 ] = 0
 e201: - x77 + [ x2 * x253 ] = 0
 e202: - x84 + [ x2 * x254 ] = 0
 e203: - x91 + [ x2 * x255 ] = 0
 e204: - x50 + [ x3 * x257 ] = 0
 e205: - x57 + [ x3 * x258 ] = 0
 e206: - x64 + [ x3 * x259 ] = 0
 e207: - x71 + [ x3 * x260 ] = 0
 e208: - x78 + [ x3 * x261 ] = 0
 e209: - x85 + [ x3 * x262 ] = 0
 e210: - x92 + [ x3 * x263 ] = 0
 e211: - x51 + [ x4 * x265 ] = 0
 e212: - x58 + [ x4 * x266 ] = 0
 e213: - x65 + [ x4 * x267 ] = 0
 e214: - x72 + [ x4 * x268 ] = 0
 e215: - x79 + [ x4 * x269 ] = 0
 e216: - x86 + [ x4 * x270 ] = 0
 e217: - x93 + [ x4 * x271 ] = 0
 e218: - x52 + [ x5 * x273 ] = 0
 e219: - x59 + [ x5 * x274 ] = 0
 e220: - x66 + [ x5 * x275 ] = 0
 e221: - x73 + [ x5 * x276 ] = 0
 e222: - x80 + [ x5 * x277 ] = 0
 e223: - x87 + [ x5 * x278 ] = 0
 e224: - x94 + [ x5 * x279 ] = 0
 e225: - x53 + [ x6 * x281 ] = 0
 e226: - x60 + [ x6 * x282 ] = 0
 e227: - x67 + [ x6 * x283 ] = 0
 e228: - x74 + [ x6 * x284 ] = 0
 e229: - x81 + [ x6 * x285 ] = 0
 e230: - x88 + [ x6 * x286 ] = 0
 e231: - x95 + [ x6 * x287 ] = 0
 e232: - x54 + [ x7 * x289 ] = 0
 e233: - x61 + [ x7 * x290 ] = 0
 e234: - x68 + [ x7 * x291 ] = 0
 e235: - x75 + [ x7 * x292 ] = 0
 e236: - x82 + [ x7 * x293 ] = 0
 e237: - x89 + [ x7 * x294 ] = 0
 e238: - x96 + [ x7 * x295 ] = 0
 e239: - x55 + [ x8 * x297 ] = 0
 e240: - x62 + [ x8 * x298 ] = 0
 e241: - x69 + [ x8 * x299 ] = 0
 e242: - x76 + [ x8 * x300 ] = 0
 e243: - x83 + [ x8 * x301 ] = 0
 e244: - x90 + [ x8 * x302 ] = 0
 e245: - x97 + [ x8 * x303 ] = 0
 e246: - x98 + [ x2 * x256 ] = 0
 e247: - x99 + [ x3 * x264 ] = 0
 e248: - x100 + [ x4 * x272 ] = 0
 e249: - x101 + [ x5 * x280 ] = 0
 e250: - x102 + [ x6 * x288 ] = 0
 e251: - x103 + [ x7 * x296 ] = 0
 e252: - x104 + [ x8 * x304 ] = 0

Bounds
 x2 <= 1000000
 x3 <= 1000000
 x4 <= 1000000
 x5 <= 1000000
 x6 <= 1000000
 x7 <= 1000000
 x8 <= 1000000
 x9 <= 1000000
 x10 <= 1000000
 x11 <= 1000000
 x12 <= 1000000
 x13 <= 1000000
 x14 <= 1000000
 x15 <= 1000000
 x16 <= 1000000
 x17 <= 1000000
 x18 <= 1000000
 x19 <= 1000000
 x20 <= 1000000
 x21 <= 1000000
 x22 <= 1000000
 x23 <= 1000000
 x24 <= 1000000
 x25 <= 1000000
 x26 <= 1000000
 x27 <= 1000000
 x28 <= 1000000
 x29 <= 1000000
 x30 <= 1000000
 x31 <= 1000000
 x32 <= 1000000
 x33 <= 1000000
 x34 <= 1000000
 x35 <= 1000000
 x36 <= 1000000
 x37 <= 1000000
 x38 <= 1000000
 x39 <= 1000000
 x40 <= 1000000
 x41 <= 1000000
 x42 <= 1000000
 x43 <= 1000000
 x44 <= 1000000
 x45 <= 1000000
 x46 <= 1000000
 x47 <= 1000000
 x48 <= 1000000
 x49 <= 1000000
 x50 <= 1000000
 x51 <= 1000000
 x52 <= 1000000
 x53 <= 1000000
 x54 <= 1000000
 x55 <= 1000000
 x56 <= 1000000
 x57 <= 1000000
 x58 <= 1000000
 x59 <= 1000000
 x60 <= 1000000
 x61 <= 1000000
 x62 <= 1000000
 x63 <= 1000000
 x64 <= 1000000
 x65 <= 1000000
 x66 <= 1000000
 x67 <= 1000000
 x68 <= 1000000
 x69 <= 1000000
 x70 <= 1000000
 x71 <= 1000000
 x72 <= 1000000
 x73 <= 1000000
 x74 <= 1000000
 x75 <= 1000000
 x76 <= 1000000
 x77 <= 1000000
 x78 <= 1000000
 x79 <= 1000000
 x80 <= 1000000
 x81 <= 1000000
 x82 <= 1000000
 x83 <= 1000000
 x84 <= 1000000
 x85 <= 1000000
 x86 <= 1000000
 x87 <= 1000000
 x88 <= 1000000
 x89 <= 1000000
 x90 <= 1000000
 x91 <= 1000000
 x92 <= 1000000
 x93 <= 1000000
 x94 <= 1000000
 x95 <= 1000000
 x96 <= 1000000
 x97 <= 1000000
 x98 <= 1000000
 x99 <= 1000000
 x100 <= 1000000
 x101 <= 1000000
 x102 <= 1000000
 x103 <= 1000000
 x104 <= 1000000
 x105 <= 1000000
 x106 <= 1000000
 x107 <= 1000000
 x108 <= 1000000
 x109 <= 1000000
 x110 <= 1000000
 x111 <= 1000000
 x112 <= 1000000
 x113 <= 1000000
 x114 <= 1000000
 x115 <= 1000000
 x116 <= 1000000
 x117 <= 1000000
 x118 <= 1000000
 x119 <= 1000000
 x120 <= 1000000
 x121 <= 1000000
 x122 <= 1000000
 x123 <= 1000000
 x124 <= 1000000
 x125 <= 1000000
 x126 <= 1000000
 x127 <= 1000000
 x128 <= 1000000
 x129 <= 1000000
 x130 <= 1000000
 x131 <= 1000000
 x132 <= 1000000
 x133 <= 1000000
 x134 <= 1000000
 x135 <= 1000000
 x136 <= 1000000
 x137 <= 1000000
 x138 <= 1000000
 x139 <= 1000000
 x140 <= 1000000
 x141 <= 1000000
 x142 <= 1000000
 x143 <= 1000000
 x144 <= 1000000
 x145 <= 1000000
 x146 <= 1000000
 x147 <= 1000000
 x148 <= 1000000
 x149 <= 1000000
 x150 <= 1000000
 x151 <= 1000000
 x152 <= 1000000
 x153 <= 1000000
 x154 <= 1000000
 x155 <= 1000000
 x156 <= 1000000
 x157 <= 1000000
 x158 <= 1000000
 x159 <= 1000000
 x160 <= 1000000
 x161 <= 1000000
 x162 <= 1000000
 x163 <= 1000000
 x164 <= 1000000
 x165 <= 1000000
 x166 <= 1000000
 x167 <= 1000000
 x168 <= 1000000
 x169 <= 1000000
 x170 <= 1000000
 x171 <= 1000000
 x172 <= 1000000
 x173 <= 1000000
 x174 <= 1000000
 x175 <= 1000000
 x176 <= 1000000
 x177 <= 1000000
 x178 <= 1000000
 x179 <= 1000000
 x180 <= 1000000
 x181 <= 1000000
 x182 <= 1000000
 x183 <= 1000000
 x184 <= 1000000
 x185 <= 1000000
 x186 <= 1000000
 x187 <= 1000000
 x188 <= 1000000
 x189 <= 1000000
 x190 <= 1000000
 x191 <= 1000000
 x192 <= 1000000
 x193 <= 1000000
 x194 <= 1000000
 x195 <= 1000000
 x196 <= 1000000
 x197 <= 1000000
 x198 <= 1000000
 x199 <= 1000000
 x200 <= 1000000
 x201 <= 1000000
 x202 <= 1000000
 x203 <= 1000000
 x204 <= 1000000
 x205 <= 1000000
 x206 <= 1000000
 x207 <= 1000000
 x208 <= 1000000
 x209 <= 1000000
 x210 <= 1000000
 x211 <= 1000000
 x212 <= 1000000
 x213 <= 1000000
 x214 <= 1000000
 x215 <= 1000000
 x216 <= 1000000
 x217 <= 1000000
 x218 <= 1000000
 x219 <= 1000000
 x220 <= 1000000
 x221 <= 1000000
 x222 <= 1000000
 x223 <= 1000000
 x224 <= 1000000
 x225 <= 1000000
 x226 <= 1000000
 x227 <= 1000000
 x228 <= 1000000
 x229 <= 1000000
 x230 <= 1000000
 x231 <= 1000000
 x232 <= 1000000
 x233 <= 1000000
 x234 <= 1000000
 x235 <= 1000000
 x236 <= 1000000
 x237 <= 1000000
 x238 <= 1000000
 x239 <= 1000000
 x240 <= 1000000
 x241 <= 1000000
 x242 <= 1000000
 x243 <= 1000000
 x244 <= 1000000
 x245 <= 1000000
 x246 <= 1000000
 x247 <= 1000000
 x248 <= 1000000
 x249 <= 1000000
 x250 <= 1000000
 x251 <= 1000000
 x252 <= 1000000
 x253 <= 1000000
 x254 <= 1000000
 x255 <= 1000000
 x256 <= 1000000
 x257 <= 1000000
 x258 <= 1000000
 x259 <= 1000000
 x260 <= 1000000
 x261 <= 1000000
 x262 <= 1000000
 x263 <= 1000000
 x264 <= 1000000
 x265 <= 1000000
 x266 <= 1000000
 x267 <= 1000000
 x268 <= 1000000
 x269 <= 1000000
 x270 <= 1000000
 x271 <= 1000000
 x272 <= 1000000
 x273 <= 1000000
 x274 <= 1000000
 x275 <= 1000000
 x276 <= 1000000
 x277 <= 1000000
 x278 <= 1000000
 x279 <= 1000000
 x280 <= 1000000
 x281 <= 1000000
 x282 <= 1000000
 x283 <= 1000000
 x284 <= 1000000
 x285 <= 1000000
 x286 <= 1000000
 x287 <= 1000000
 x288 <= 1000000
 x289 <= 1000000
 x290 <= 1000000
 x291 <= 1000000
 x292 <= 1000000
 x293 <= 1000000
 x294 <= 1000000
 x295 <= 1000000
 x296 <= 1000000
 x297 <= 1000000
 x298 <= 1000000
 x299 <= 1000000
 x300 <= 1000000
 x301 <= 1000000
 x302 <= 1000000
 x303 <= 1000000
 x304 <= 1000000

End
