\ Equation counts
\     Total        E        G        L        N        X        C        B
\       270      180        0       90        0        0        0        0
\ 
\ Variable counts
\                  x        b        i      s1s      s2s       sc       si
\     Total     cont   binary  integer     sos1     sos2    scont     sint
\       280      190       90        0        0        0        0        0
\ 
\ Nonzero counts
\     Total    const       NL      DLL
\      1431     1251      180        0
\ 
Minimize
 obj: b2 + b3 + b4 + b5 + b6 + b7 + b8 + b9 + b10 + b11 + b12 + b13 + b14 + b15 + b16 + b17 + b18 + b19 
  + b20 + b21 + b22 + b23 + b24 + b25 + b26 + b27 + b28 + b29 + b30 + b31 + b32 + b33 + b34 + b35 + b36 
  + b37 + b38 + b39 + b40 + b41 + b42 + b43 + b44 + b45 + b46 + b47 + b48 + b49 + b50 + b51 + b52 + b53 
  + b54 + b55 + b56 + b57 + b58 + b59 + b60 + b61 + b62 + b63 + b64 + b65 + b66 + b67 + b68 + b69 + b70 
  + b71 + b72 + b73 + b74 + b75 + b76 + b77 + b78 + b79 + b80 + b81 + b82 + b83 + b84 + b85 + b86 + b87 
  + b88 + b89 + b90 + b91 + 0 x92 + 0 x93 + 0 x94 + 0 x95 + 0 x96 + 0 x97 + 0 x98 + 0 x99 + 0 x100 + 0 x101 
  + 0 x102 + 0 x103 + 0 x104 + 0 x105 + 0 x106 + 0 x107 + 0 x108 + 0 x109 + 0 x110 + 0 x111 + 0 x112 
  + 0 x113 + 0 x114 + 0 x115 + 0 x116 + 0 x117 + 0 x118 + 0 x119 + 0 x120 + 0 x121 + 0 x122 + 0 x123 
  + 0 x124 + 0 x125 + 0 x126 + 0 x127 + 0 x128 + 0 x129 + 0 x130 + 0 x131 + 0 x132 + 0 x133 + 0 x134 
  + 0 x135 + 0 x136 + 0 x137 + 0 x138 + 0 x139 + 0 x140 + 0 x141 + 0 x142 + 0 x143 + 0 x144 + 0 x145 
  + 0 x146 + 0 x147 + 0 x148 + 0 x149 + 0 x150 + 0 x151 + 0 x152 + 0 x153 + 0 x154 + 0 x155 + 0 x156 
  + 0 x157 + 0 x158 + 0 x159 + 0 x160 + 0 x161 + 0 x162 + 0 x163 + 0 x164 + 0 x165 + 0 x166 + 0 x167 
  + 0 x168 + 0 x169 + 0 x170 + 0 x171 + 0 x172 + 0 x173 + 0 x174 + 0 x175 + 0 x176 + 0 x177 + 0 x178 
  + 0 x179 + 0 x180 + 0 x181 + 0 x182 + 0 x183 + 0 x184 + 0 x185 + 0 x186 + 0 x187 + 0 x188 + 0 x189 
  + 0 x190 + 0 x191 + 0 x192 + 0 x193 + 0 x194 + 0 x195 + 0 x196 + 0 x197 + 0 x198 + 0 x199 + 0 x200 
  + 0 x201 + 0 x202 + 0 x203 + 0 x204 + 0 x205 + 0 x206 + 0 x207 + 0 x208 + 0 x209 + 0 x210 + 0 x211 
  + 0 x212 + 0 x213 + 0 x214 + 0 x215 + 0 x216 + 0 x217 + 0 x218 + 0 x219 + 0 x220 + 0 x221 + 0 x222 
  + 0 x223 + 0 x224 + 0 x225 + 0 x226 + 0 x227 + 0 x228 + 0 x229 + 0 x230 + 0 x231 + 0 x232 + 0 x233 
  + 0 x234 + 0 x235 + 0 x236 + 0 x237 + 0 x238 + 0 x239 + 0 x240 + 0 x241 + 0 x242 + 0 x243 + 0 x244 
  + 0 x245 + 0 x246 + 0 x247 + 0 x248 + 0 x249 + 0 x250 + 0 x251 + 0 x252 + 0 x253 + 0 x254 + 0 x255 
  + 0 x256 + 0 x257 + 0 x258 + 0 x259 + 0 x260 + 0 x261 + 0 x262 + 0 x263 + 0 x264 + 0 x265 + 0 x266 
  + 0 x267 + 0 x268 + 0 x269 + 0 x270 + 0 x271 + 0 x272 + 0 x273 + 0 x274 + 0 x275 + 0 x276 + 0 x277 
  + 0 x278 + 0 x279 + 0 x280 + 0 x281

Subject To
 e2: - 66 x92 + 49 x93 - 81 x94 + 73 x95 + 15 x96 + 56 x97 + 38 x98 - 26 x99 + 74 x100 + 48 x101 - x102
   <= -11
 e3: - 29 x92 + 46 x93 - 48 x94 - 21 x95 + 55 x96 + 68 x97 + 14 x98 + 42 x99 - 84 x100 - 9 x101 - x103
   <= -78
 e4: 8 x92 - 22 x93 + 13 x94 + 91 x95 + 73 x96 - 68 x97 - 45 x98 - 48 x99 + 84 x100 - 13 x101 - x104 <= 
  57
 e5: - 75 x92 - 84 x93 + 88 x94 - 95 x95 - 70 x96 - 24 x97 - 69 x98 + 5 x99 + 75 x100 - 14 x101 - x105
   <= -47
 e6: - 37 x92 + 53 x93 - 79 x94 + 53 x95 + 40 x96 - 57 x97 + 52 x98 - 18 x99 + 29 x100 + 85 x101 - x106
   <= 0
 e7: 37 x92 - 13 x93 + 21 x94 + 14 x95 + 26 x96 - 7 x97 + 26 x98 - 73 x99 + 92 x100 - 71 x101 - x107 <= 
  -11
 e8: - 35 x92 + 90 x93 - 29 x94 - 20 x95 - 80 x96 + 90 x97 + 96 x98 + 14 x99 + 73 x100 - 70 x101 - x108
   <= 81
 e9: 29 x92 - 88 x93 + 90 x94 + 93 x95 + 56 x96 + 60 x97 + 13 x98 - 44 x99 + 92 x100 + 15 x101 - x109
   <= -13
 e10: - 25 x92 + 84 x93 - 95 x94 + 53 x95 + 44 x96 + 17 x97 - 15 x98 + 28 x99 + 49 x100 - 87 x101 - x110
   <= -90
 e11: 54 x92 + 40 x93 - 76 x94 - 40 x95 - 86 x96 + 37 x97 - 27 x98 + 45 x99 - 61 x100 - 69 x101 - x111
   <= -68
 e12: 66 x92 + 9 x93 - 37 x94 + 5 x95 - 13 x96 - 58 x97 + 45 x98 - 100 x99 + 16 x100 - 5 x101 - x112 <= 
  87
 e13: 52 x92 - 75 x93 - 98 x94 + 68 x96 + 70 x97 - 82 x98 + 71 x99 + 57 x100 + 15 x101 - x113 <= -81
 e14: 65 x92 + 49 x93 + 81 x94 + x95 + 76 x96 + 92 x97 + 12 x98 - 5 x99 - 17 x100 + 29 x101 - x114 <= 
  75
 e15: 16 x92 - 56 x93 + 99 x94 - 69 x95 + 38 x96 + 40 x97 + 97 x98 + 29 x99 + 30 x100 + 68 x101 - x115
   <= 36
 e16: 93 x92 - 34 x93 + 59 x94 - 68 x95 + 72 x96 + 20 x97 - 16 x98 + 96 x99 + 73 x100 - 7 x101 - x116
   <= -51
 e17: 68 x92 + 68 x93 + 47 x94 - 74 x95 - 5 x96 + 56 x97 + 13 x99 - 11 x100 - 93 x101 - x117 <= -34
 e18: - 15 x92 + 16 x93 - 83 x94 + 34 x95 + 17 x96 - 53 x97 + 48 x98 + 91 x99 + 72 x100 - 86 x101 - x118
   <= 7
 e19: - 24 x92 - 100 x93 + 43 x94 - 90 x95 - 96 x96 + 51 x97 + 25 x98 + 86 x99 + 9 x100 - 17 x101 - x119
   <= -22
 e20: - 61 x92 - 39 x93 - 58 x94 + 21 x95 - 26 x96 - 68 x97 - 8 x98 + 60 x99 - 64 x100 + 43 x101 - x120
   <= -5
 e21: - 72 x92 + 26 x93 - 52 x94 - 76 x95 + 74 x96 - 80 x97 + 50 x98 - 24 x99 + 10 x100 - 85 x101 - x121
   <= -25
 e22: 24 x92 + 57 x93 - 16 x94 + 64 x95 + 9 x96 + 45 x97 - 2 x98 - 48 x99 - 2 x101 - x122 <= -2
 e23: 69 x92 + 83 x93 - 28 x94 + 8 x95 + 20 x96 + 21 x97 - 12 x98 + 41 x99 - 57 x100 + 52 x101 - x123
   <= -39
 e24: 57 x92 - 82 x93 + 79 x94 + 86 x95 + 93 x96 + 23 x97 - 87 x98 - 78 x99 + 25 x100 - 86 x101 - x124
   <= 11
 e25: - 53 x92 + 22 x93 + 86 x94 + 13 x95 + 14 x96 - 7 x97 - 76 x98 - 53 x99 + 99 x100 + 11 x101 - x125
   <= 72
 e26: - 43 x92 + 45 x93 + 64 x94 - 2 x95 + 18 x96 - 78 x97 - 69 x98 + 39 x99 + 18 x100 + 76 x101 - x126
   <= -14
 e27: - 58 x92 - 64 x93 + 37 x94 - 57 x95 - 47 x96 - 56 x97 - x98 - 47 x99 - 11 x100 - 53 x101 - x127
   <= -41
 e28: 29 x92 + 49 x93 + 38 x94 - 15 x95 + 51 x96 - 20 x97 - 25 x98 + 27 x99 + 6 x100 + 79 x101 - x128
   <= 30
 e29: 86 x92 - 99 x93 - 66 x94 + 28 x95 + 52 x96 + 34 x97 + 53 x98 + 50 x99 + 79 x100 - 57 x101 - x129
   <= 26
 e30: 19 x92 + 24 x93 - 27 x94 - 86 x95 - 50 x96 - 28 x97 - 3 x98 - 42 x100 - 53 x101 - x130 <= 32
 e31: 79 x92 + 33 x93 - 92 x94 + 67 x95 + 13 x96 - 64 x97 - 95 x98 - 5 x99 + 12 x100 - 67 x101 - x131
   <= 21
 e32: 28 x92 - 39 x93 + 91 x94 + 52 x95 + 26 x96 - 87 x97 - 74 x98 + 51 x99 - 4 x100 + 42 x101 - x132
   <= -77
 e33: 27 x92 - 20 x93 + 40 x94 + 56 x95 + 40 x96 - 47 x97 + 55 x98 - 74 x99 - 45 x100 - 84 x101 - x133
   <= -58
 e34: - 61 x92 + 23 x93 + 20 x94 + 9 x95 + 13 x96 - 75 x97 - 86 x98 + 76 x99 - 70 x100 + 12 x101 - x134
   <= -37
 e35: - 33 x92 - 59 x93 + 34 x94 - 93 x95 - 92 x96 + 63 x97 - 88 x98 + 41 x99 - 18 x100 + 77 x101 - x135
   <= 87
 e36: - 100 x92 - 30 x93 + 87 x94 + 98 x95 - 28 x96 + 95 x97 - 95 x98 - 32 x99 + 69 x100 - 12 x101 - x136
   <= 40
 e37: 13 x92 - 80 x93 - 64 x94 - 52 x95 + 36 x96 + 97 x97 + 2 x98 + 80 x99 - 7 x100 - 5 x101 - x137 <= 
  -19
 e38: 51 x92 - 77 x93 - 71 x94 + 39 x95 - 48 x96 + 5 x97 - 87 x98 - 71 x99 - 18 x100 - 84 x101 - x138
   <= 27
 e39: - 97 x92 - 52 x93 + 15 x94 - 68 x95 - 47 x96 - 85 x97 - 71 x98 - 83 x99 - 72 x100 - 6 x101 - x139
   <= 44
 e40: - 5 x92 + 11 x93 - x94 - 84 x95 - 41 x96 - 41 x97 - 34 x98 - 83 x99 - 81 x100 - 60 x101 - x140 <= 
  -79
 e41: - 66 x92 + 66 x93 + 65 x94 + 84 x95 + 6 x96 - 6 x97 + 39 x98 + x99 + 53 x100 + 96 x101 - x141 <= 
  -7
 e42: 33 x92 + 78 x93 + 70 x94 + 50 x95 + 42 x96 - 83 x97 + 59 x98 - 25 x99 - 9 x100 - 27 x101 - x142
   <= 55
 e43: 19 x92 - 89 x93 - 76 x94 + 11 x95 + 30 x96 - 88 x97 + 4 x98 + 68 x99 - 69 x100 - 100 x101 - x143
   <= 79
 e44: - 57 x92 - 63 x93 + 93 x94 + 63 x95 + 41 x96 + 17 x97 + 35 x98 + 54 x99 - 54 x100 - 57 x101 - x144
   <= -26
 e45: 64 x92 - 68 x93 + 22 x94 - 76 x95 - 13 x96 - 100 x97 + 3 x98 - 8 x99 + 37 x100 - 94 x101 - x145
   <= -19
 e46: - 44 x93 + 99 x94 - 27 x95 - 26 x96 + 90 x97 - 84 x98 + 22 x99 + 58 x100 - 29 x101 - x146 <= 94
  
 e47: - 64 x92 - 14 x93 + 56 x94 - 77 x95 + 6 x96 - 52 x97 + 22 x98 + 55 x99 - 64 x100 - 2 x101 - x147
   <= 86
 e48: - 37 x92 - 28 x93 - 80 x94 - 26 x95 + 77 x96 + 78 x97 + 97 x98 - 79 x99 - 70 x100 + 87 x101 - x148
   <= 56
 e49: 75 x92 - 48 x93 - 75 x94 + 7 x95 - 31 x96 - 23 x97 - 26 x98 - 5 x99 + 45 x100 + 86 x101 - x149 <= 
  -1
 e50: - 5 x92 + 91 x93 - 40 x94 - 10 x95 + 64 x96 - 24 x97 + 45 x98 - 31 x99 + 31 x100 + 72 x101 - x150
   <= 32
 e51: 60 x92 + 85 x93 - 36 x94 - 5 x95 + 13 x96 - 15 x97 + 89 x98 - 83 x99 - 15 x100 - 38 x101 - x151
   <= 39
 e52: - 29 x92 + 6 x93 - 78 x94 + 47 x95 + 85 x96 - 72 x97 + 88 x98 - 96 x99 - 20 x100 - 60 x101 - x152
   <= -80
 e53: - 93 x92 - 19 x93 - 11 x94 + 36 x95 - 49 x96 + 62 x97 - 81 x98 + 29 x99 + x100 - x153 <= -69
 e54: 26 x92 - 79 x93 - 58 x94 + 77 x95 + 97 x96 - 97 x97 + 72 x98 - 76 x99 - 74 x100 + 13 x101 - x154
   <= -74
 e55: 72 x92 + 8 x93 - 11 x94 - 37 x95 - 14 x96 + 93 x97 + 61 x98 + 44 x99 + 68 x100 + 86 x101 - x155
   <= -77
 e56: - 7 x92 - 22 x93 - 24 x94 - 50 x95 - 74 x96 + 24 x97 + 23 x98 - 2 x99 + 3 x100 + 56 x101 - x156
   <= -45
 e57: - 15 x92 - 79 x93 - 54 x94 + 80 x95 + 15 x96 + 62 x97 + 56 x98 + 41 x99 - 32 x100 + 87 x101 - x157
   <= -59
 e58: 44 x92 + 66 x93 - 31 x94 - 35 x95 - 32 x96 + 5 x97 + 10 x98 - 97 x99 - 9 x100 - x158 <= -50
 e59: x92 - 52 x93 + 21 x94 - 41 x95 + 82 x96 + 13 x97 - 41 x98 - 3 x99 - 72 x100 + 28 x101 - x159 <= 
  -74
 e60: 64 x92 + 2 x93 - 19 x94 - 69 x95 + 43 x96 - 4 x97 + 43 x98 + 70 x99 + 67 x100 - 5 x101 - x160 <= 
  82
 e61: - 84 x92 - 67 x93 + 35 x94 + 53 x95 + 82 x96 - 14 x97 + 71 x98 - 30 x99 + 33 x100 - 57 x101 - x161
   <= -2
 e62: - 60 x92 - 18 x93 - 23 x94 + 73 x95 - 22 x96 + 53 x97 + 12 x98 - 25 x99 + 81 x100 + 69 x101 - x162
   <= -44
 e63: 71 x92 + 94 x93 + 52 x94 - 68 x95 - 64 x96 + 3 x97 - 38 x98 + 96 x99 + 43 x100 + 15 x101 - x163
   <= -16
 e64: - 17 x92 - 59 x93 + 90 x94 + 76 x95 - 99 x96 - 84 x97 - 42 x98 + 73 x99 + 95 x100 + 28 x101 - x164
   <= -16
 e65: 73 x92 - 37 x93 + 98 x94 - 85 x95 - 45 x96 + 66 x97 - 94 x98 + 52 x99 - 23 x100 - 54 x101 - x165
   <= -90
 e66: - 34 x92 + 95 x93 + 49 x94 + 19 x95 + 23 x96 + 22 x97 + 13 x98 - 34 x99 + 22 x100 - 21 x101 - x166
   <= 46
 e67: - 96 x92 - 23 x93 + 22 x94 + 19 x95 + 87 x96 + 57 x97 + 63 x98 + 64 x99 + 22 x100 - 38 x101 - x167
   <= 63
 e68: - 92 x92 - 62 x93 + 16 x94 - 65 x95 - 12 x96 + x98 - 7 x99 - 38 x100 - 67 x101 - x168 <= 50
 e69: - 15 x92 + 14 x93 + 69 x94 + 58 x95 - 75 x96 + 85 x97 + 15 x98 - 11 x99 + 31 x100 - 55 x101 - x169
   <= -93
 e70: - 34 x92 - 81 x93 - 18 x94 + 34 x95 + 5 x96 - 87 x97 + 63 x98 - 79 x99 - 38 x100 + 79 x101 - x170
   <= -71
 e71: - 67 x92 + 68 x93 - 96 x94 + 98 x95 + 11 x96 + 16 x97 - 39 x98 - 74 x99 + 90 x100 - 81 x101 - x171
   <= -75
 e72: 6 x92 - 22 x93 - 57 x94 - 21 x95 - 61 x96 + 92 x97 + 8 x98 + 41 x99 - 33 x100 + 64 x101 - x172 <= 
  7
 e73: 54 x92 - 93 x93 + 87 x94 + 55 x95 - 9 x96 + 84 x97 - 75 x98 - 88 x99 + 79 x100 - 49 x101 - x173
   <= 79
 e74: - 25 x92 - 97 x93 + 15 x94 + 20 x95 - 88 x96 - 8 x97 + 56 x98 - 14 x99 - 71 x100 - 59 x101 - x174
   <= 83
 e75: 47 x92 - 50 x93 - 42 x94 - 69 x95 + 92 x96 + 68 x97 - 64 x98 + 35 x99 - 35 x100 - 67 x101 - x175
   <= 58
 e76: 34 x92 + 35 x93 - 51 x94 - 54 x95 + 36 x96 - 38 x97 - 27 x98 + 69 x99 + 72 x100 + 50 x101 - x176
   <= -77
 e77: - 55 x92 + 95 x93 - 92 x94 + 19 x95 + 3 x96 - 19 x97 - 61 x98 + 34 x99 + 2 x100 + 56 x101 - x177
   <= -6
 e78: - 49 x92 - 76 x93 + 26 x94 + 22 x95 + 6 x96 - 76 x97 - 50 x98 - 95 x99 - 25 x100 - 50 x101 - x178
   <= 21
 e79: - 96 x92 - 96 x93 - 46 x94 + 88 x95 + 48 x96 + 2 x97 - 48 x98 + 94 x99 + 32 x100 + 66 x101 - x179
   <= -91
 e80: 7 x92 - 34 x93 - 30 x94 - 77 x95 - 65 x96 + 93 x97 + 65 x98 + 22 x99 + 34 x100 - 98 x101 - x180
   <= 99
 e81: - 73 x92 - 93 x93 - 14 x94 + 49 x95 + 54 x96 + 23 x97 - 93 x98 - 63 x99 - 87 x100 - 22 x101 - x181
   <= 16
 e82: 99 x92 + 91 x93 - 70 x94 + 67 x95 - 18 x96 - 88 x97 - 70 x98 + 80 x99 + 39 x100 - 11 x101 - x182
   <= -49
 e83: - 62 x92 - 32 x93 + 46 x94 - 31 x95 + 69 x96 - 47 x97 + 23 x98 - 78 x99 + 45 x100 - 66 x101 - x183
   <= -94
 e84: 2 x92 - 67 x93 + 31 x94 - 29 x95 - 5 x96 + 5 x97 + 94 x98 + 77 x99 - 42 x100 + 63 x101 - x184 <= 
  -36
 e85: - 70 x92 + 37 x93 + 45 x94 - 86 x95 + 49 x96 - 22 x97 + 95 x98 + 3 x99 - 19 x100 - x185 <= -4
 e86: 54 x92 + 72 x93 + 45 x94 + 61 x95 + 3 x96 - 7 x97 - 22 x98 + 52 x99 - 8 x100 + 71 x101 - x186 <= 
  -61
 e87: 87 x92 - 9 x93 - 28 x94 - 65 x95 - 71 x96 - 53 x97 + 13 x98 - x99 + 52 x100 - 26 x101 - x187 <= 
  61
 e88: 47 x92 + 44 x93 + 82 x94 - 62 x95 - 21 x96 - 80 x97 - 77 x98 - 67 x99 + 86 x100 - 62 x101 - x188
   <= 64
 e89: 83 x92 - 66 x93 + 79 x94 - 59 x95 - 96 x96 - 67 x97 - 61 x98 + 37 x99 + 75 x100 - 84 x101 - x189
   <= -61
 e90: 45 x92 + 67 x93 + 33 x94 + 59 x95 - 93 x96 + 46 x97 - 4 x98 + 64 x99 + 50 x100 + 51 x101 - x190
   <= -52
 e91: - 45 x92 - 23 x93 + 34 x94 + 33 x95 + 56 x96 - 35 x97 + 45 x98 - 83 x99 - 63 x100 - 25 x101 - x191
   <= 10
 e92: - b2 - x192 = -1
 e93: - b3 - x193 = -1
 e94: - b4 - x194 = -1
 e95: - b5 - x195 = -1
 e96: - b6 - x196 = -1
 e97: - b7 - x197 = -1
 e98: - b8 - x198 = -1
 e99: - b9 - x199 = -1
 e100: - b10 - x200 = -1
 e101: - b11 - x201 = -1
 e102: - b12 - x202 = -1
 e103: - b13 - x203 = -1
 e104: - b14 - x204 = -1
 e105: - b15 - x205 = -1
 e106: - b16 - x206 = -1
 e107: - b17 - x207 = -1
 e108: - b18 - x208 = -1
 e109: - b19 - x209 = -1
 e110: - b20 - x210 = -1
 e111: - b21 - x211 = -1
 e112: - b22 - x212 = -1
 e113: - b23 - x213 = -1
 e114: - b24 - x214 = -1
 e115: - b25 - x215 = -1
 e116: - b26 - x216 = -1
 e117: - b27 - x217 = -1
 e118: - b28 - x218 = -1
 e119: - b29 - x219 = -1
 e120: - b30 - x220 = -1
 e121: - b31 - x221 = -1
 e122: - b32 - x222 = -1
 e123: - b33 - x223 = -1
 e124: - b34 - x224 = -1
 e125: - b35 - x225 = -1
 e126: - b36 - x226 = -1
 e127: - b37 - x227 = -1
 e128: - b38 - x228 = -1
 e129: - b39 - x229 = -1
 e130: - b40 - x230 = -1
 e131: - b41 - x231 = -1
 e132: - b42 - x232 = -1
 e133: - b43 - x233 = -1
 e134: - b44 - x234 = -1
 e135: - b45 - x235 = -1
 e136: - b46 - x236 = -1
 e137: - b47 - x237 = -1
 e138: - b48 - x238 = -1
 e139: - b49 - x239 = -1
 e140: - b50 - x240 = -1
 e141: - b51 - x241 = -1
 e142: - b52 - x242 = -1
 e143: - b53 - x243 = -1
 e144: - b54 - x244 = -1
 e145: - b55 - x245 = -1
 e146: - b56 - x246 = -1
 e147: - b57 - x247 = -1
 e148: - b58 - x248 = -1
 e149: - b59 - x249 = -1
 e150: - b60 - x250 = -1
 e151: - b61 - x251 = -1
 e152: - b62 - x252 = -1
 e153: - b63 - x253 = -1
 e154: - b64 - x254 = -1
 e155: - b65 - x255 = -1
 e156: - b66 - x256 = -1
 e157: - b67 - x257 = -1
 e158: - b68 - x258 = -1
 e159: - b69 - x259 = -1
 e160: - b70 - x260 = -1
 e161: - b71 - x261 = -1
 e162: - b72 - x262 = -1
 e163: - b73 - x263 = -1
 e164: - b74 - x264 = -1
 e165: - b75 - x265 = -1
 e166: - b76 - x266 = -1
 e167: - b77 - x267 = -1
 e168: - b78 - x268 = -1
 e169: - b79 - x269 = -1
 e170: - b80 - x270 = -1
 e171: - b81 - x271 = -1
 e172: - b82 - x272 = -1
 e173: - b83 - x273 = -1
 e174: - b84 - x274 = -1
 e175: - b85 - x275 = -1
 e176: - b86 - x276 = -1
 e177: - b87 - x277 = -1
 e178: - b88 - x278 = -1
 e179: - b89 - x279 = -1
 e180: - b90 - x280 = -1
 e181: - b91 - x281 = -1
 e182: [ x102 * x192 ] = 0
 e183: [ x103 * x193 ] = 0
 e184: [ x104 * x194 ] = 0
 e185: [ x105 * x195 ] = 0
 e186: [ x106 * x196 ] = 0
 e187: [ x107 * x197 ] = 0
 e188: [ x108 * x198 ] = 0
 e189: [ x109 * x199 ] = 0
 e190: [ x110 * x200 ] = 0
 e191: [ x111 * x201 ] = 0
 e192: [ x112 * x202 ] = 0
 e193: [ x113 * x203 ] = 0
 e194: [ x114 * x204 ] = 0
 e195: [ x115 * x205 ] = 0
 e196: [ x116 * x206 ] = 0
 e197: [ x117 * x207 ] = 0
 e198: [ x118 * x208 ] = 0
 e199: [ x119 * x209 ] = 0
 e200: [ x120 * x210 ] = 0
 e201: [ x121 * x211 ] = 0
 e202: [ x122 * x212 ] = 0
 e203: [ x123 * x213 ] = 0
 e204: [ x124 * x214 ] = 0
 e205: [ x125 * x215 ] = 0
 e206: [ x126 * x216 ] = 0
 e207: [ x127 * x217 ] = 0
 e208: [ x128 * x218 ] = 0
 e209: [ x129 * x219 ] = 0
 e210: [ x130 * x220 ] = 0
 e211: [ x131 * x221 ] = 0
 e212: [ x132 * x222 ] = 0
 e213: [ x133 * x223 ] = 0
 e214: [ x134 * x224 ] = 0
 e215: [ x135 * x225 ] = 0
 e216: [ x136 * x226 ] = 0
 e217: [ x137 * x227 ] = 0
 e218: [ x138 * x228 ] = 0
 e219: [ x139 * x229 ] = 0
 e220: [ x140 * x230 ] = 0
 e221: [ x141 * x231 ] = 0
 e222: [ x142 * x232 ] = 0
 e223: [ x143 * x233 ] = 0
 e224: [ x144 * x234 ] = 0
 e225: [ x145 * x235 ] = 0
 e226: [ x146 * x236 ] = 0
 e227: [ x147 * x237 ] = 0
 e228: [ x148 * x238 ] = 0
 e229: [ x149 * x239 ] = 0
 e230: [ x150 * x240 ] = 0
 e231: [ x151 * x241 ] = 0
 e232: [ x152 * x242 ] = 0
 e233: [ x153 * x243 ] = 0
 e234: [ x154 * x244 ] = 0
 e235: [ x155 * x245 ] = 0
 e236: [ x156 * x246 ] = 0
 e237: [ x157 * x247 ] = 0
 e238: [ x158 * x248 ] = 0
 e239: [ x159 * x249 ] = 0
 e240: [ x160 * x250 ] = 0
 e241: [ x161 * x251 ] = 0
 e242: [ x162 * x252 ] = 0
 e243: [ x163 * x253 ] = 0
 e244: [ x164 * x254 ] = 0
 e245: [ x165 * x255 ] = 0
 e246: [ x166 * x256 ] = 0
 e247: [ x167 * x257 ] = 0
 e248: [ x168 * x258 ] = 0
 e249: [ x169 * x259 ] = 0
 e250: [ x170 * x260 ] = 0
 e251: [ x171 * x261 ] = 0
 e252: [ x172 * x262 ] = 0
 e253: [ x173 * x263 ] = 0
 e254: [ x174 * x264 ] = 0
 e255: [ x175 * x265 ] = 0
 e256: [ x176 * x266 ] = 0
 e257: [ x177 * x267 ] = 0
 e258: [ x178 * x268 ] = 0
 e259: [ x179 * x269 ] = 0
 e260: [ x180 * x270 ] = 0
 e261: [ x181 * x271 ] = 0
 e262: [ x182 * x272 ] = 0
 e263: [ x183 * x273 ] = 0
 e264: [ x184 * x274 ] = 0
 e265: [ x185 * x275 ] = 0
 e266: [ x186 * x276 ] = 0
 e267: [ x187 * x277 ] = 0
 e268: [ x188 * x278 ] = 0
 e269: [ x189 * x279 ] = 0
 e270: [ x190 * x280 ] = 0
 e271: [ x191 * x281 ] = 0

Bounds
 x92 Free
 x93 Free
 x94 Free
 x95 Free
 x96 Free
 x97 Free
 x98 Free
 x99 Free
 x100 Free
 x101 Free
 x192 Free
 x193 Free
 x194 Free
 x195 Free
 x196 Free
 x197 Free
 x198 Free
 x199 Free
 x200 Free
 x201 Free
 x202 Free
 x203 Free
 x204 Free
 x205 Free
 x206 Free
 x207 Free
 x208 Free
 x209 Free
 x210 Free
 x211 Free
 x212 Free
 x213 Free
 x214 Free
 x215 Free
 x216 Free
 x217 Free
 x218 Free
 x219 Free
 x220 Free
 x221 Free
 x222 Free
 x223 Free
 x224 Free
 x225 Free
 x226 Free
 x227 Free
 x228 Free
 x229 Free
 x230 Free
 x231 Free
 x232 Free
 x233 Free
 x234 Free
 x235 Free
 x236 Free
 x237 Free
 x238 Free
 x239 Free
 x240 Free
 x241 Free
 x242 Free
 x243 Free
 x244 Free
 x245 Free
 x246 Free
 x247 Free
 x248 Free
 x249 Free
 x250 Free
 x251 Free
 x252 Free
 x253 Free
 x254 Free
 x255 Free
 x256 Free
 x257 Free
 x258 Free
 x259 Free
 x260 Free
 x261 Free
 x262 Free
 x263 Free
 x264 Free
 x265 Free
 x266 Free
 x267 Free
 x268 Free
 x269 Free
 x270 Free
 x271 Free
 x272 Free
 x273 Free
 x274 Free
 x275 Free
 x276 Free
 x277 Free
 x278 Free
 x279 Free
 x280 Free
 x281 Free

Binary
 b2 b3 b4 b5 b6 b7 b8 b9 b10 b11 b12 b13 b14 b15 b16 b17 b18 b19 b20 b21 b22 b23 b24 b25 b26
 b27 b28 b29 b30 b31 b32 b33 b34 b35 b36 b37 b38 b39 b40 b41 b42 b43 b44 b45 b46 b47 b48 b49
 b50 b51 b52 b53 b54 b55 b56 b57 b58 b59 b60 b61 b62 b63 b64 b65 b66 b67 b68 b69 b70 b71 b72
 b73 b74 b75 b76 b77 b78 b79 b80 b81 b82 b83 b84 b85 b86 b87 b88 b89 b90 b91

End
