\ Equation counts
\     Total        E        G        L        N        X        C        B
\       201      151        0       50        0        0        0        0
\ 
\ Variable counts
\                  x        b        i      s1s      s2s       sc       si
\     Total     cont   binary  integer     sos1     sos2    scont     sint
\       383      143      240        0        0        0        0        0
\ 
\ Nonzero counts
\     Total    const       NL      DLL
\      1512     1401      111        0
\ 
Minimize
 obj: 7.5 x2 + 13.05038314 x3 + 13.05038314 x4 + 13.05038314 x5 + 13.05038314 x6 + 10.68000468 x7 + 10.68000468 x8 
  + 10.68000468 x9 + 10.68000468 x10 + 7.5 x11 + 7.5 x12 + 7.5 x13 + 7.5 x14 + 18.11422093 x15 + 18.11422093 x16 
  + 18.11422093 x17 + 18.11422093 x18 + 18.11422093 x19 + 18.11422093 x20 + 18.11422093 x21 + 18.11422093 x22 
  + 13.34634782 x23 + 13.34634782 x24 + 13.34634782 x25 + 13.34634782 x26 + 0 x27 + 0 x28 + 0 x29 + 0 x30 
  + 0 x31 + 0 x32 + 0 x33 + 0 x34 + 0 x35 + 0 x36 + 0 x37 + 0 x38 + 0 x39 + 0 x40 + 0 x41 + 0 x42 + 0 x43 
  + 0 x44 + 0 x45 + 0 x46 + 0 x47 + 0 x48 + 0 x49 + 0 x50 + 0 x51 + 0 x52 + 0 x53 + 0 x54 + 0 x55 + 0 x56 
  + 0 x57 + 0 x58 + 0 x59 + 0 x60 + 0 x61 + 0 x62 + 0 x63 + 0 x64 + 0 x65 + 0 x66 + 0 x67 + 0 x68 + 0 x69 
  + 0 x70 + 0 x71 + 0 x72 + 0 x73 + 0 x74 + 0 x75 + 0 x76 + 0 x77 + 0 x78 + 0 x79 + 0 x80 + 0 x81 + 0 x82 
  + 0 x83 + 0 x84 + 0 x85 + 0 x86 + 0 x87 + 0 x88 + 0 x89 + 0 x90 + 0 x91 + 0 x92 + 0 x93 + 0 x94 + 0 x95 
  + 0 x96 + 0 x97 + 0 x98 + 0 x99 + 0 x100 + 0 x101 + 0 x102 + 0 x103 + 0 x104 + 0 x105 + 0 x106 + 0 x107 
  + 0 x108 + 0 x109 + 0 x110 + 0 x111 + 0 x112 + 0 x113 + 0 x114 + 0 x115 + 0 x116 + 0 x117 + 0 x118 
  + 0 x119 + 0 x120 + 0 x121 + 0 x122 + 0 x123 + 0 x124 + 0 x125 + 0 x126 + 0 x127 + 0 x128 + 0 x129 
  + 0 x130 + 0 x131 + 0 x132 + 0 x133 + 0 x134 + 0 x135 + 0 x136 + 0 x137 + 0 x138 + 0 x139 + 0 x140 
  + 0 x141 + 0 x142 + 0 x143 + 0 x144 + 0 b145 + 0 b146 + 0 b147 + 0 b148 + 0 b149 + 0 b150 + 0 b151 
  + 0 b152 + 0 b153 + 0 b154 + 0 b155 + 0 b156 + 0 b157 + 0 b158 + 0 b159 + 0 b160 + 0 b161 + 0 b162 
  + 0 b163 + 0 b164 + 0 b165 + 0 b166 + 0 b167 + 0 b168 + 0 b169 + 0 b170 + 0 b171 + 0 b172 + 0 b173 
  + 0 b174 + 0 b175 + 0 b176 + 0 b177 + 0 b178 + 0 b179 + 0 b180 + 0 b181 + 0 b182 + 0 b183 + 0 b184 
  + 0 b185 + 0 b186 + 0 b187 + 0 b188 + 0 b189 + 0 b190 + 0 b191 + 0 b192 + 0 b193 + 0 b194 + 0 b195 
  + 0 b196 + 0 b197 + 0 b198 + 0 b199 + 0 b200 + 0 b201 + 0 b202 + 0 b203 + 0 b204 + 0 b205 + 0 b206 
  + 0 b207 + 0 b208 + 0 b209 + 0 b210 + 0 b211 + 0 b212 + 0 b213 + 0 b214 + 0 b215 + 0 b216 + 0 b217 
  + 0 b218 + 0 b219 + 0 b220 + 0 b221 + 0 b222 + 0 b223 + 0 b224 + 0 b225 + 0 b226 + 0 b227 + 0 b228 
  + 0 b229 + 0 b230 + 0 b231 + 0 b232 + 0 b233 + 0 b234 + 0 b235 + 0 b236 + 0 b237 + 0 b238 + 0 b239 
  + 0 b240 + 0 b241 + 0 b242 + 0 b243 + 0 b244 + 0 b245 + 0 b246 + 0 b247 + 0 b248 + 0 b249 + 0 b250 
  + 0 b251 + 0 b252 + 0 b253 + 0 b254 + 0 b255 + 0 b256 + 0 b257 + 0 b258 + 0 b259 + 0 b260 + 0 b261 
  + 0 b262 + 0 b263 + 0 b264 + 0 b265 + 0 b266 + 0 b267 + 0 b268 + 0 b269 + 0 b270 + 0 b271 + 0 b272 
  + 0 b273 + 0 b274 + 0 b275 + 0 b276 + 0 b277 + 0 b278 + 0 b279 + 0 b280 + 0 b281 + 0 b282 + 0 b283 
  + 0 b284 + 0 b285 + 0 b286 + 0 b287 + 0 b288 + 0 b289 + 0 b290 + 0 b291 + 0 b292 + 0 b293 + 0 b294 
  + 0 b295 + 0 b296 + 0 b297 + 0 b298 + 0 b299 + 0 b300 + 0 b301 + 0 b302 + 0 b303 + 0 b304 + 0 b305 
  + 0 b306 + 0 b307 + 0 b308 + 0 b309 + 0 b310 + 0 b311 + 0 b312 + 0 b313 + 0 b314 + 0 b315 + 0 b316 
  + 0 b317 + 0 b318 + 0 b319 + 0 b320 + 0 b321 + 0 b322 + 0 b323 + 0 b324 + 0 b325 + 0 b326 + 0 b327 
  + 0 b328 + 0 b329 + 0 b330 + 0 b331 + 0 b332 + 0 b333 + 0 b334 + 0 b335 + 0 b336 + 0 b337 + 0 b338 
  + 0 b339 + 0 b340 + 0 b341 + 0 b342 + 0 b343 + 0 b344 + 0 b345 + 0 b346 + 0 b347 + 0 b348 + 0 b349 
  + 0 b350 + 0 b351 + 0 b352 + 0 b353 + 0 b354 + 0 b355 + 0 b356 + 0 b357 + 0 b358 + 0 b359 + 0 b360 
  + 0 b361 + 0 b362 + 0 b363 + 0 b364 + 0 b365 + 0 b366 + 0 b367 + 0 b368 + 0 b369 + 0 b370 + 0 b371 
  + 0 b372 + 0 b373 + 0 b374 + 0 b375 + 0 b376 + 0 b377 + 0 b378 + 0 b379 + 0 b380 + 0 b381 + 0 b382 
  + 0 b383 + 0 b384

Subject To
 e2: - 133.3333333 x2 + x45 = 0
 e3: - 76.62610282 x3 + x46 = 0
 e4: - 76.62610282 x4 + x47 = 0
 e5: - 76.62610282 x5 + x48 = 0
 e6: - 76.62610282 x6 + x49 = 0
 e7: - 93.63291776 x7 + x50 = 0
 e8: - 93.63291776 x8 + x51 = 0
 e9: - 93.63291776 x9 + x52 = 0
 e10: - 93.63291776 x10 + x53 = 0
 e11: - 133.3333333 x11 + x54 = 0
 e12: - 133.3333333 x12 + x55 = 0
 e13: - 133.3333333 x13 + x56 = 0
 e14: - 133.3333333 x14 + x57 = 0
 e15: - 55.20524475 x15 + x58 = 0
 e16: - 55.20524475 x16 + x59 = 0
 e17: - 55.20524475 x17 + x60 = 0
 e18: - 55.20524475 x18 + x61 = 0
 e19: - 55.20524475 x19 + x62 = 0
 e20: - 55.20524475 x20 + x63 = 0
 e21: - 55.20524475 x21 + x64 = 0
 e22: - 55.20524475 x22 + x65 = 0
 e23: - 74.92686493 x23 + x66 = 0
 e24: - 74.92686493 x24 + x67 = 0
 e25: - 74.92686493 x25 + x68 = 0
 e26: - 74.92686493 x26 + x69 = 0
 e27: - 40 x2 + x70 = 0
 e28: - 40 x3 + x71 = 0
 e29: - 40 x4 + x72 = 0
 e30: - 40 x5 + x73 = 0
 e31: - 40 x6 + x74 = 0
 e32: - 40 x7 + x75 = 0
 e33: - 40 x8 + x76 = 0
 e34: - 40 x9 + x77 = 0
 e35: - 40 x10 + x78 = 0
 e36: - 40 x11 + x79 = 0
 e37: - 40 x12 + x80 = 0
 e38: - 40 x13 + x81 = 0
 e39: - 40 x14 + x82 = 0
 e40: - 40 x15 + x83 = 0
 e41: - 40 x16 + x84 = 0
 e42: - 40 x17 + x85 = 0
 e43: - 40 x18 + x86 = 0
 e44: - 40 x19 + x87 = 0
 e45: - 40 x20 + x88 = 0
 e46: - 40 x21 + x89 = 0
 e47: - 40 x22 + x90 = 0
 e48: - 40 x23 + x91 = 0
 e49: - 40 x24 + x92 = 0
 e50: - 40 x25 + x93 = 0
 e51: - 40 x26 + x94 = 0
 e52: - 40 x2 + x95 = 0
 e53: - 40 x3 + x96 = 0
 e54: - 40 x4 + x97 = 0
 e55: - 40 x5 + x98 = 0
 e56: - 40 x6 + x99 = 0
 e57: - 40 x7 + x100 = 0
 e58: - 40 x8 + x101 = 0
 e59: - 40 x9 + x102 = 0
 e60: - 40 x10 + x103 = 0
 e61: - 40 x11 + x104 = 0
 e62: - 40 x12 + x105 = 0
 e63: - 40 x13 + x106 = 0
 e64: - 40 x14 + x107 = 0
 e65: - 40 x15 + x108 = 0
 e66: - 40 x16 + x109 = 0
 e67: - 40 x17 + x110 = 0
 e68: - 40 x18 + x111 = 0
 e69: - 40 x19 + x112 = 0
 e70: - 40 x20 + x113 = 0
 e71: - 40 x21 + x114 = 0
 e72: - 40 x22 + x115 = 0
 e73: - 40 x23 + x116 = 0
 e74: - 40 x24 + x117 = 0
 e75: - 40 x25 + x118 = 0
 e76: - 40 x26 + x119 = 0
 e77: - x120 - 0.5746957711 x121 - 0.5746957711 x122 = 1
 e78: - 0.2873478856 x121 + 0.2873478856 x122 - 0.3511234416 x123 + 0.3511234416 x124 = 10
 e79: 0.7662610282 x121 + 0.7662610282 x122 + 0.9363291776 x123 + 0.9363291776 x124 = -10
 e80: x120 + 0.5746957711 x125 + 0.5746957711 x126 = 0
 e81: - 0.2873478856 x125 + 0.2873478856 x126 - 0.3511234416 x127 + 0.3511234416 x128 = 10
 e82: 0.7662610282 x125 + 0.7662610282 x126 + 0.9363291776 x127 + 0.9363291776 x128 = -10
 e83: - 0.5746957711 x125 - x129 + 0.3450327797 x130 - 0.7590721153 x131 + 0.4682929058 x132 = 0.5
 e84: 0.3511234416 x123 + 0.2873478856 x125 + 0.7590721153 x130 - 0.3450327797 x131 - 0.4682929058 x132 
  + x133 = 0
 e85: - 0.9363291776 x123 - 0.7662610282 x125 + 0.5520524475 x130 + 0.5520524475 x131 + 0.7492686493 x132
   = 0
 e86: 0.5746957711 x121 + x129 - 0.3450327797 x134 + 0.7590721153 x135 - 0.4682929058 x136 = 0
 e87: 0.2873478856 x121 + 0.3511234416 x127 + 0.7590721153 x134 - 0.3450327797 x135 - 0.4682929058 x136 
  + x137 = 0
 e88: - 0.7662610282 x121 - 0.9363291776 x127 + 0.5520524475 x134 + 0.5520524475 x135 + 0.7492686493 x136
   = 0
 e89: 0.5746957711 x122 + x138 - 0.3450327797 x139 + 0.7590721153 x140 - 0.4682929058 x141 = 0
 e90: - 0.2873478856 x122 - 0.3511234416 x128 - x137 - 0.7590721153 x139 + 0.3450327797 x140 + 0.4682929058 x141
   = 0
 e91: - 0.7662610282 x122 - 0.9363291776 x128 + 0.5520524475 x139 + 0.5520524475 x140 + 0.7492686493 x141
   = 0
 e92: - 0.5746957711 x126 - x138 + 0.3450327797 x142 - 0.7590721153 x143 + 0.4682929058 x144 = 0.6
 e93: - 0.3511234416 x124 - 0.2873478856 x126 - x133 - 0.7590721153 x142 + 0.3450327797 x143 + 0.4682929058 x144
   = 0
 e94: - 0.9363291776 x124 - 0.7662610282 x126 + 0.5520524475 x142 + 0.5520524475 x143 + 0.7492686493 x144
   = 0
 e95: - x70 + x120 <= 0
 e96: - x95 - x120 <= 0
 e97: - x71 + x121 <= 0
 e98: - x96 - x121 <= 0
 e99: - x72 + x125 <= 0
 e100: - x97 - x125 <= 0
 e101: - x73 + x122 <= 0
 e102: - x98 - x122 <= 0
 e103: - x74 + x126 <= 0
 e104: - x99 - x126 <= 0
 e105: - x75 + x127 <= 0
 e106: - x100 - x127 <= 0
 e107: - x76 + x128 <= 0
 e108: - x101 - x128 <= 0
 e109: - x77 + x123 <= 0
 e110: - x102 - x123 <= 0
 e111: - x78 + x124 <= 0
 e112: - x103 - x124 <= 0
 e113: - x79 + x133 <= 0
 e114: - x104 - x133 <= 0
 e115: - x80 + x137 <= 0
 e116: - x105 - x137 <= 0
 e117: - x81 + x129 <= 0
 e118: - x106 - x129 <= 0
 e119: - x82 + x138 <= 0
 e120: - x107 - x138 <= 0
 e121: - x83 + x130 <= 0
 e122: - x108 - x130 <= 0
 e123: - x84 + x142 <= 0
 e124: - x109 - x142 <= 0
 e125: - x85 + x134 <= 0
 e126: - x110 - x134 <= 0
 e127: - x86 + x139 <= 0
 e128: - x111 - x139 <= 0
 e129: - x87 + x135 <= 0
 e130: - x112 - x135 <= 0
 e131: - x88 + x131 <= 0
 e132: - x113 - x131 <= 0
 e133: - x89 + x140 <= 0
 e134: - x114 - x140 <= 0
 e135: - x90 + x143 <= 0
 e136: - x115 - x143 <= 0
 e137: - x91 + x144 <= 0
 e138: - x116 - x144 <= 0
 e139: - x92 + x132 <= 0
 e140: - x117 - x132 <= 0
 e141: - x93 + x136 <= 0
 e142: - x118 - x136 <= 0
 e143: - x94 + x141 <= 0
 e144: - x119 - x141 <= 0
 e145: - x2 + 0.1 b145 + 0.2 b146 + 0.3 b147 + 0.4 b148 + 0.5 b149 + 0.6 b150 + 0.7 b151 + 0.8 b152 + 0.9 b153 
  + b154 + 1.1 b155 + 1.2 b156 + 1.3 b157 + 1.4 b158 + 1.5 b159 + 1.6 b160 + 1.7 b161 + 1.8 b162 + 1.9 b163 
  + 2 b164 + 2.1 b165 + 2.2 b166 + 2.3 b167 + 2.4 b168 + 2.5 b169 + 2.6 b170 + 2.8 b171 + 3 b172 + 3.2 b173 
  + 3.4 b174 = 0
 e146: - x3 + 0.1 b175 + 0.2 b176 + 0.3 b177 + 0.4 b178 + 0.5 b179 + 0.6 b180 + 0.7 b181 + 0.8 b182 + 0.9 b183 
  + b184 + 1.1 b185 + 1.2 b186 + 1.3 b187 + 1.4 b188 + 1.5 b189 + 1.6 b190 + 1.7 b191 + 1.8 b192 + 1.9 b193 
  + 2 b194 + 2.1 b195 + 2.2 b196 + 2.3 b197 + 2.4 b198 + 2.5 b199 + 2.6 b200 + 2.8 b201 + 3 b202 + 3.2 b203 
  + 3.4 b204 = 0
 e147: - x4 + 0.1 b175 + 0.2 b176 + 0.3 b177 + 0.4 b178 + 0.5 b179 + 0.6 b180 + 0.7 b181 + 0.8 b182 + 0.9 b183 
  + b184 + 1.1 b185 + 1.2 b186 + 1.3 b187 + 1.4 b188 + 1.5 b189 + 1.6 b190 + 1.7 b191 + 1.8 b192 + 1.9 b193 
  + 2 b194 + 2.1 b195 + 2.2 b196 + 2.3 b197 + 2.4 b198 + 2.5 b199 + 2.6 b200 + 2.8 b201 + 3 b202 + 3.2 b203 
  + 3.4 b204 = 0
 e148: - x5 + 0.1 b175 + 0.2 b176 + 0.3 b177 + 0.4 b178 + 0.5 b179 + 0.6 b180 + 0.7 b181 + 0.8 b182 + 0.9 b183 
  + b184 + 1.1 b185 + 1.2 b186 + 1.3 b187 + 1.4 b188 + 1.5 b189 + 1.6 b190 + 1.7 b191 + 1.8 b192 + 1.9 b193 
  + 2 b194 + 2.1 b195 + 2.2 b196 + 2.3 b197 + 2.4 b198 + 2.5 b199 + 2.6 b200 + 2.8 b201 + 3 b202 + 3.2 b203 
  + 3.4 b204 = 0
 e149: - x6 + 0.1 b175 + 0.2 b176 + 0.3 b177 + 0.4 b178 + 0.5 b179 + 0.6 b180 + 0.7 b181 + 0.8 b182 + 0.9 b183 
  + b184 + 1.1 b185 + 1.2 b186 + 1.3 b187 + 1.4 b188 + 1.5 b189 + 1.6 b190 + 1.7 b191 + 1.8 b192 + 1.9 b193 
  + 2 b194 + 2.1 b195 + 2.2 b196 + 2.3 b197 + 2.4 b198 + 2.5 b199 + 2.6 b200 + 2.8 b201 + 3 b202 + 3.2 b203 
  + 3.4 b204 = 0
 e150: - x7 + 0.1 b205 + 0.2 b206 + 0.3 b207 + 0.4 b208 + 0.5 b209 + 0.6 b210 + 0.7 b211 + 0.8 b212 + 0.9 b213 
  + b214 + 1.1 b215 + 1.2 b216 + 1.3 b217 + 1.4 b218 + 1.5 b219 + 1.6 b220 + 1.7 b221 + 1.8 b222 + 1.9 b223 
  + 2 b224 + 2.1 b225 + 2.2 b226 + 2.3 b227 + 2.4 b228 + 2.5 b229 + 2.6 b230 + 2.8 b231 + 3 b232 + 3.2 b233 
  + 3.4 b234 = 0
 e151: - x8 + 0.1 b205 + 0.2 b206 + 0.3 b207 + 0.4 b208 + 0.5 b209 + 0.6 b210 + 0.7 b211 + 0.8 b212 + 0.9 b213 
  + b214 + 1.1 b215 + 1.2 b216 + 1.3 b217 + 1.4 b218 + 1.5 b219 + 1.6 b220 + 1.7 b221 + 1.8 b222 + 1.9 b223 
  + 2 b224 + 2.1 b225 + 2.2 b226 + 2.3 b227 + 2.4 b228 + 2.5 b229 + 2.6 b230 + 2.8 b231 + 3 b232 + 3.2 b233 
  + 3.4 b234 = 0
 e152: - x9 + 0.1 b205 + 0.2 b206 + 0.3 b207 + 0.4 b208 + 0.5 b209 + 0.6 b210 + 0.7 b211 + 0.8 b212 + 0.9 b213 
  + b214 + 1.1 b215 + 1.2 b216 + 1.3 b217 + 1.4 b218 + 1.5 b219 + 1.6 b220 + 1.7 b221 + 1.8 b222 + 1.9 b223 
  + 2 b224 + 2.1 b225 + 2.2 b226 + 2.3 b227 + 2.4 b228 + 2.5 b229 + 2.6 b230 + 2.8 b231 + 3 b232 + 3.2 b233 
  + 3.4 b234 = 0
 e153: - x10 + 0.1 b205 + 0.2 b206 + 0.3 b207 + 0.4 b208 + 0.5 b209 + 0.6 b210 + 0.7 b211 + 0.8 b212 
  + 0.9 b213 + b214 + 1.1 b215 + 1.2 b216 + 1.3 b217 + 1.4 b218 + 1.5 b219 + 1.6 b220 + 1.7 b221 + 1.8 b222 
  + 1.9 b223 + 2 b224 + 2.1 b225 + 2.2 b226 + 2.3 b227 + 2.4 b228 + 2.5 b229 + 2.6 b230 + 2.8 b231 + 3 b232 
  + 3.2 b233 + 3.4 b234 = 0
 e154: - x11 + 0.1 b235 + 0.2 b236 + 0.3 b237 + 0.4 b238 + 0.5 b239 + 0.6 b240 + 0.7 b241 + 0.8 b242 
  + 0.9 b243 + b244 + 1.1 b245 + 1.2 b246 + 1.3 b247 + 1.4 b248 + 1.5 b249 + 1.6 b250 + 1.7 b251 + 1.8 b252 
  + 1.9 b253 + 2 b254 + 2.1 b255 + 2.2 b256 + 2.3 b257 + 2.4 b258 + 2.5 b259 + 2.6 b260 + 2.8 b261 + 3 b262 
  + 3.2 b263 + 3.4 b264 = 0
 e155: - x12 + 0.1 b235 + 0.2 b236 + 0.3 b237 + 0.4 b238 + 0.5 b239 + 0.6 b240 + 0.7 b241 + 0.8 b242 
  + 0.9 b243 + b244 + 1.1 b245 + 1.2 b246 + 1.3 b247 + 1.4 b248 + 1.5 b249 + 1.6 b250 + 1.7 b251 + 1.8 b252 
  + 1.9 b253 + 2 b254 + 2.1 b255 + 2.2 b256 + 2.3 b257 + 2.4 b258 + 2.5 b259 + 2.6 b260 + 2.8 b261 + 3 b262 
  + 3.2 b263 + 3.4 b264 = 0
 e156: - x13 + 0.1 b265 + 0.2 b266 + 0.3 b267 + 0.4 b268 + 0.5 b269 + 0.6 b270 + 0.7 b271 + 0.8 b272 
  + 0.9 b273 + b274 + 1.1 b275 + 1.2 b276 + 1.3 b277 + 1.4 b278 + 1.5 b279 + 1.6 b280 + 1.7 b281 + 1.8 b282 
  + 1.9 b283 + 2 b284 + 2.1 b285 + 2.2 b286 + 2.3 b287 + 2.4 b288 + 2.5 b289 + 2.6 b290 + 2.8 b291 + 3 b292 
  + 3.2 b293 + 3.4 b294 = 0
 e157: - x14 + 0.1 b265 + 0.2 b266 + 0.3 b267 + 0.4 b268 + 0.5 b269 + 0.6 b270 + 0.7 b271 + 0.8 b272 
  + 0.9 b273 + b274 + 1.1 b275 + 1.2 b276 + 1.3 b277 + 1.4 b278 + 1.5 b279 + 1.6 b280 + 1.7 b281 + 1.8 b282 
  + 1.9 b283 + 2 b284 + 2.1 b285 + 2.2 b286 + 2.3 b287 + 2.4 b288 + 2.5 b289 + 2.6 b290 + 2.8 b291 + 3 b292 
  + 3.2 b293 + 3.4 b294 = 0
 e158: - x15 + 0.1 b295 + 0.2 b296 + 0.3 b297 + 0.4 b298 + 0.5 b299 + 0.6 b300 + 0.7 b301 + 0.8 b302 
  + 0.9 b303 + b304 + 1.1 b305 + 1.2 b306 + 1.3 b307 + 1.4 b308 + 1.5 b309 + 1.6 b310 + 1.7 b311 + 1.8 b312 
  + 1.9 b313 + 2 b314 + 2.1 b315 + 2.2 b316 + 2.3 b317 + 2.4 b318 + 2.5 b319 + 2.6 b320 + 2.8 b321 + 3 b322 
  + 3.2 b323 + 3.4 b324 = 0
 e159: - x16 + 0.1 b295 + 0.2 b296 + 0.3 b297 + 0.4 b298 + 0.5 b299 + 0.6 b300 + 0.7 b301 + 0.8 b302 
  + 0.9 b303 + b304 + 1.1 b305 + 1.2 b306 + 1.3 b307 + 1.4 b308 + 1.5 b309 + 1.6 b310 + 1.7 b311 + 1.8 b312 
  + 1.9 b313 + 2 b314 + 2.1 b315 + 2.2 b316 + 2.3 b317 + 2.4 b318 + 2.5 b319 + 2.6 b320 + 2.8 b321 + 3 b322 
  + 3.2 b323 + 3.4 b324 = 0
 e160: - x17 + 0.1 b295 + 0.2 b296 + 0.3 b297 + 0.4 b298 + 0.5 b299 + 0.6 b300 + 0.7 b301 + 0.8 b302 
  + 0.9 b303 + b304 + 1.1 b305 + 1.2 b306 + 1.3 b307 + 1.4 b308 + 1.5 b309 + 1.6 b310 + 1.7 b311 + 1.8 b312 
  + 1.9 b313 + 2 b314 + 2.1 b315 + 2.2 b316 + 2.3 b317 + 2.4 b318 + 2.5 b319 + 2.6 b320 + 2.8 b321 + 3 b322 
  + 3.2 b323 + 3.4 b324 = 0
 e161: - x18 + 0.1 b295 + 0.2 b296 + 0.3 b297 + 0.4 b298 + 0.5 b299 + 0.6 b300 + 0.7 b301 + 0.8 b302 
  + 0.9 b303 + b304 + 1.1 b305 + 1.2 b306 + 1.3 b307 + 1.4 b308 + 1.5 b309 + 1.6 b310 + 1.7 b311 + 1.8 b312 
  + 1.9 b313 + 2 b314 + 2.1 b315 + 2.2 b316 + 2.3 b317 + 2.4 b318 + 2.5 b319 + 2.6 b320 + 2.8 b321 + 3 b322 
  + 3.2 b323 + 3.4 b324 = 0
 e162: - x19 + 0.1 b325 + 0.2 b326 + 0.3 b327 + 0.4 b328 + 0.5 b329 + 0.6 b330 + 0.7 b331 + 0.8 b332 
  + 0.9 b333 + b334 + 1.1 b335 + 1.2 b336 + 1.3 b337 + 1.4 b338 + 1.5 b339 + 1.6 b340 + 1.7 b341 + 1.8 b342 
  + 1.9 b343 + 2 b344 + 2.1 b345 + 2.2 b346 + 2.3 b347 + 2.4 b348 + 2.5 b349 + 2.6 b350 + 2.8 b351 + 3 b352 
  + 3.2 b353 + 3.4 b354 = 0
 e163: - x20 + 0.1 b325 + 0.2 b326 + 0.3 b327 + 0.4 b328 + 0.5 b329 + 0.6 b330 + 0.7 b331 + 0.8 b332 
  + 0.9 b333 + b334 + 1.1 b335 + 1.2 b336 + 1.3 b337 + 1.4 b338 + 1.5 b339 + 1.6 b340 + 1.7 b341 + 1.8 b342 
  + 1.9 b343 + 2 b344 + 2.1 b345 + 2.2 b346 + 2.3 b347 + 2.4 b348 + 2.5 b349 + 2.6 b350 + 2.8 b351 + 3 b352 
  + 3.2 b353 + 3.4 b354 = 0
 e164: - x21 + 0.1 b325 + 0.2 b326 + 0.3 b327 + 0.4 b328 + 0.5 b329 + 0.6 b330 + 0.7 b331 + 0.8 b332 
  + 0.9 b333 + b334 + 1.1 b335 + 1.2 b336 + 1.3 b337 + 1.4 b338 + 1.5 b339 + 1.6 b340 + 1.7 b341 + 1.8 b342 
  + 1.9 b343 + 2 b344 + 2.1 b345 + 2.2 b346 + 2.3 b347 + 2.4 b348 + 2.5 b349 + 2.6 b350 + 2.8 b351 + 3 b352 
  + 3.2 b353 + 3.4 b354 = 0
 e165: - x22 + 0.1 b325 + 0.2 b326 + 0.3 b327 + 0.4 b328 + 0.5 b329 + 0.6 b330 + 0.7 b331 + 0.8 b332 
  + 0.9 b333 + b334 + 1.1 b335 + 1.2 b336 + 1.3 b337 + 1.4 b338 + 1.5 b339 + 1.6 b340 + 1.7 b341 + 1.8 b342 
  + 1.9 b343 + 2 b344 + 2.1 b345 + 2.2 b346 + 2.3 b347 + 2.4 b348 + 2.5 b349 + 2.6 b350 + 2.8 b351 + 3 b352 
  + 3.2 b353 + 3.4 b354 = 0
 e166: - x23 + 0.1 b355 + 0.2 b356 + 0.3 b357 + 0.4 b358 + 0.5 b359 + 0.6 b360 + 0.7 b361 + 0.8 b362 
  + 0.9 b363 + b364 + 1.1 b365 + 1.2 b366 + 1.3 b367 + 1.4 b368 + 1.5 b369 + 1.6 b370 + 1.7 b371 + 1.8 b372 
  + 1.9 b373 + 2 b374 + 2.1 b375 + 2.2 b376 + 2.3 b377 + 2.4 b378 + 2.5 b379 + 2.6 b380 + 2.8 b381 + 3 b382 
  + 3.2 b383 + 3.4 b384 = 0
 e167: - x24 + 0.1 b355 + 0.2 b356 + 0.3 b357 + 0.4 b358 + 0.5 b359 + 0.6 b360 + 0.7 b361 + 0.8 b362 
  + 0.9 b363 + b364 + 1.1 b365 + 1.2 b366 + 1.3 b367 + 1.4 b368 + 1.5 b369 + 1.6 b370 + 1.7 b371 + 1.8 b372 
  + 1.9 b373 + 2 b374 + 2.1 b375 + 2.2 b376 + 2.3 b377 + 2.4 b378 + 2.5 b379 + 2.6 b380 + 2.8 b381 + 3 b382 
  + 3.2 b383 + 3.4 b384 = 0
 e168: - x25 + 0.1 b355 + 0.2 b356 + 0.3 b357 + 0.4 b358 + 0.5 b359 + 0.6 b360 + 0.7 b361 + 0.8 b362 
  + 0.9 b363 + b364 + 1.1 b365 + 1.2 b366 + 1.3 b367 + 1.4 b368 + 1.5 b369 + 1.6 b370 + 1.7 b371 + 1.8 b372 
  + 1.9 b373 + 2 b374 + 2.1 b375 + 2.2 b376 + 2.3 b377 + 2.4 b378 + 2.5 b379 + 2.6 b380 + 2.8 b381 + 3 b382 
  + 3.2 b383 + 3.4 b384 = 0
 e169: - x26 + 0.1 b355 + 0.2 b356 + 0.3 b357 + 0.4 b358 + 0.5 b359 + 0.6 b360 + 0.7 b361 + 0.8 b362 
  + 0.9 b363 + b364 + 1.1 b365 + 1.2 b366 + 1.3 b367 + 1.4 b368 + 1.5 b369 + 1.6 b370 + 1.7 b371 + 1.8 b372 
  + 1.9 b373 + 2 b374 + 2.1 b375 + 2.2 b376 + 2.3 b377 + 2.4 b378 + 2.5 b379 + 2.6 b380 + 2.8 b381 + 3 b382 
  + 3.2 b383 + 3.4 b384 = 0
 e170: b145 + b146 + b147 + b148 + b149 + b150 + b151 + b152 + b153 + b154 + b155 + b156 + b157 + b158 
  + b159 + b160 + b161 + b162 + b163 + b164 + b165 + b166 + b167 + b168 + b169 + b170 + b171 + b172 + b173 
  + b174 = 1
 e171: b175 + b176 + b177 + b178 + b179 + b180 + b181 + b182 + b183 + b184 + b185 + b186 + b187 + b188 
  + b189 + b190 + b191 + b192 + b193 + b194 + b195 + b196 + b197 + b198 + b199 + b200 + b201 + b202 + b203 
  + b204 = 1
 e172: b205 + b206 + b207 + b208 + b209 + b210 + b211 + b212 + b213 + b214 + b215 + b216 + b217 + b218 
  + b219 + b220 + b221 + b222 + b223 + b224 + b225 + b226 + b227 + b228 + b229 + b230 + b231 + b232 + b233 
  + b234 = 1
 e173: b235 + b236 + b237 + b238 + b239 + b240 + b241 + b242 + b243 + b244 + b245 + b246 + b247 + b248 
  + b249 + b250 + b251 + b252 + b253 + b254 + b255 + b256 + b257 + b258 + b259 + b260 + b261 + b262 + b263 
  + b264 = 1
 e174: b265 + b266 + b267 + b268 + b269 + b270 + b271 + b272 + b273 + b274 + b275 + b276 + b277 + b278 
  + b279 + b280 + b281 + b282 + b283 + b284 + b285 + b286 + b287 + b288 + b289 + b290 + b291 + b292 + b293 
  + b294 = 1
 e175: b295 + b296 + b297 + b298 + b299 + b300 + b301 + b302 + b303 + b304 + b305 + b306 + b307 + b308 
  + b309 + b310 + b311 + b312 + b313 + b314 + b315 + b316 + b317 + b318 + b319 + b320 + b321 + b322 + b323 
  + b324 = 1
 e176: b325 + b326 + b327 + b328 + b329 + b330 + b331 + b332 + b333 + b334 + b335 + b336 + b337 + b338 
  + b339 + b340 + b341 + b342 + b343 + b344 + b345 + b346 + b347 + b348 + b349 + b350 + b351 + b352 + b353 
  + b354 = 1
 e177: b355 + b356 + b357 + b358 + b359 + b360 + b361 + b362 + b363 + b364 + b365 + b366 + b367 + b368 
  + b369 + b370 + b371 + b372 + b373 + b374 + b375 + b376 + b377 + b378 + b379 + b380 + b381 + b382 + b383 
  + b384 = 1
 e178: - x120 + [ - x27 * x45 + x30 * x45 ] = 0
 e179: - x121 + [ - 0.5746957711 x27 * x46 - 0.2873478856 x28 * x46 + 0.7662610282 x29 * x46 + 0.5746957711 x36 * x46 
  + 0.2873478856 x37 * x46 - 0.7662610282 x38 * x46 ] = 0
 e180: - x125 + [ 0.5746957711 x30 * x47 - 0.2873478856 x31 * x47 + 0.7662610282 x32 * x47 - 0.5746957711 x33 * x47 
  + 0.2873478856 x34 * x47 - 0.7662610282 x35 * x47 ] = 0
 e181: - x122 + [ - 0.5746957711 x27 * x48 + 0.2873478856 x28 * x48 + 0.7662610282 x29 * x48 + 0.5746957711 x39 * x48 
  - 0.2873478856 x40 * x48 - 0.7662610282 x41 * x48 ] = 0
 e182: - x126 + [ 0.5746957711 x30 * x49 + 0.2873478856 x31 * x49 + 0.7662610282 x32 * x49 - 0.5746957711 x42 * x49 
  - 0.2873478856 x43 * x49 - 0.7662610282 x44 * x49 ] = 0
 e183: - x127 + [ - 0.3511234416 x31 * x50 + 0.9363291776 x32 * x50 + 0.3511234416 x37 * x50 - 0.9363291776 x38 * x50 
  ] = 0
 e184: - x128 + [ 0.3511234416 x31 * x51 + 0.9363291776 x32 * x51 - 0.3511234416 x40 * x51 - 0.9363291776 x41 * x51 
  ] = 0
 e185: - x123 + [ - 0.3511234416 x28 * x52 + 0.9363291776 x29 * x52 + 0.3511234416 x34 * x52 - 0.9363291776 x35 * x52 
  ] = 0
 e186: - x124 + [ 0.3511234416 x28 * x53 + 0.9363291776 x29 * x53 - 0.3511234416 x43 * x53 - 0.9363291776 x44 * x53 
  ] = 0
 e187: - x133 + [ x34 * x54 - x43 * x54 ] = 0
 e188: - x137 + [ x37 * x55 - x40 * x55 ] = 0
 e189: - x129 + [ - x33 * x56 + x36 * x56 ] = 0
 e190: - x138 + [ x39 * x57 - x42 * x57 ] = 0
 e191: - x130 + [ 0.3450327797 x33 * x58 + 0.7590721153 x34 * x58 + 0.5520524475 x35 * x58 ] = 0
 e192: - x142 + [ 0.3450327797 x42 * x59 - 0.7590721153 x43 * x59 + 0.5520524475 x44 * x59 ] = 0
 e193: - x134 + [ - 0.3450327797 x36 * x60 + 0.7590721153 x37 * x60 + 0.5520524475 x38 * x60 ] = 0
 e194: - x139 + [ - 0.3450327797 x39 * x61 - 0.7590721153 x40 * x61 + 0.5520524475 x41 * x61 ] = 0
 e195: - x135 + [ 0.7590721153 x36 * x62 - 0.3450327797 x37 * x62 + 0.5520524475 x38 * x62 ] = 0
 e196: - x131 + [ - 0.7590721153 x33 * x63 - 0.3450327797 x34 * x63 + 0.5520524475 x35 * x63 ] = 0
 e197: - x140 + [ 0.7590721153 x39 * x64 + 0.3450327797 x40 * x64 + 0.5520524475 x41 * x64 ] = 0
 e198: - x143 + [ - 0.7590721153 x42 * x65 + 0.3450327797 x43 * x65 + 0.5520524475 x44 * x65 ] = 0
 e199: - x144 + [ 0.4682929058 x42 * x66 + 0.4682929058 x43 * x66 + 0.7492686493 x44 * x66 ] = 0
 e200: - x132 + [ 0.4682929058 x33 * x67 - 0.4682929058 x34 * x67 + 0.7492686493 x35 * x67 ] = 0
 e201: - x136 + [ - 0.4682929058 x36 * x68 - 0.4682929058 x37 * x68 + 0.7492686493 x38 * x68 ] = 0
 e202: - x141 + [ - 0.4682929058 x39 * x69 + 0.4682929058 x40 * x69 + 0.7492686493 x41 * x69 ] = 0

Bounds
 0.1 <= x2 <= 3.4
 0.1 <= x3 <= 3.4
 0.1 <= x4 <= 3.4
 0.1 <= x5 <= 3.4
 0.1 <= x6 <= 3.4
 0.1 <= x7 <= 3.4
 0.1 <= x8 <= 3.4
 0.1 <= x9 <= 3.4
 0.1 <= x10 <= 3.4
 0.1 <= x11 <= 3.4
 0.1 <= x12 <= 3.4
 0.1 <= x13 <= 3.4
 0.1 <= x14 <= 3.4
 0.1 <= x15 <= 3.4
 0.1 <= x16 <= 3.4
 0.1 <= x17 <= 3.4
 0.1 <= x18 <= 3.4
 0.1 <= x19 <= 3.4
 0.1 <= x20 <= 3.4
 0.1 <= x21 <= 3.4
 0.1 <= x22 <= 3.4
 0.1 <= x23 <= 3.4
 0.1 <= x24 <= 3.4
 0.1 <= x25 <= 3.4
 0.1 <= x26 <= 3.4
 -0.35 <= x27 <= 0.35
 -0.35 <= x28 <= 0.35
 x29 Free
 -0.35 <= x30 <= 0.35
 -0.35 <= x31 <= 0.35
 x32 Free
 x33 Free
 x34 Free
 x35 Free
 x36 Free
 x37 Free
 x38 Free
 x39 Free
 x40 Free
 x41 Free
 x42 Free
 x43 Free
 x44 Free
 x45 Free
 x46 Free
 x47 Free
 x48 Free
 x49 Free
 x50 Free
 x51 Free
 x52 Free
 x53 Free
 x54 Free
 x55 Free
 x56 Free
 x57 Free
 x58 Free
 x59 Free
 x60 Free
 x61 Free
 x62 Free
 x63 Free
 x64 Free
 x65 Free
 x66 Free
 x67 Free
 x68 Free
 x69 Free
 x70 Free
 x71 Free
 x72 Free
 x73 Free
 x74 Free
 x75 Free
 x76 Free
 x77 Free
 x78 Free
 x79 Free
 x80 Free
 x81 Free
 x82 Free
 x83 Free
 x84 Free
 x85 Free
 x86 Free
 x87 Free
 x88 Free
 x89 Free
 x90 Free
 x91 Free
 x92 Free
 x93 Free
 x94 Free
 x95 Free
 x96 Free
 x97 Free
 x98 Free
 x99 Free
 x100 Free
 x101 Free
 x102 Free
 x103 Free
 x104 Free
 x105 Free
 x106 Free
 x107 Free
 x108 Free
 x109 Free
 x110 Free
 x111 Free
 x112 Free
 x113 Free
 x114 Free
 x115 Free
 x116 Free
 x117 Free
 x118 Free
 x119 Free
 x120 Free
 x121 Free
 x122 Free
 x123 Free
 x124 Free
 x125 Free
 x126 Free
 x127 Free
 x128 Free
 x129 Free
 x130 Free
 x131 Free
 x132 Free
 x133 Free
 x134 Free
 x135 Free
 x136 Free
 x137 Free
 x138 Free
 x139 Free
 x140 Free
 x141 Free
 x142 Free
 x143 Free
 x144 Free

Binary
 b145 b146 b147 b148 b149 b150 b151 b152 b153 b154 b155 b156 b157 b158 b159 b160 b161 b162 b163
 b164 b165 b166 b167 b168 b169 b170 b171 b172 b173 b174 b175 b176 b177 b178 b179 b180 b181 b182
 b183 b184 b185 b186 b187 b188 b189 b190 b191 b192 b193 b194 b195 b196 b197 b198 b199 b200 b201
 b202 b203 b204 b205 b206 b207 b208 b209 b210 b211 b212 b213 b214 b215 b216 b217 b218 b219 b220
 b221 b222 b223 b224 b225 b226 b227 b228 b229 b230 b231 b232 b233 b234 b235 b236 b237 b238 b239
 b240 b241 b242 b243 b244 b245 b246 b247 b248 b249 b250 b251 b252 b253 b254 b255 b256 b257 b258
 b259 b260 b261 b262 b263 b264 b265 b266 b267 b268 b269 b270 b271 b272 b273 b274 b275 b276 b277
 b278 b279 b280 b281 b282 b283 b284 b285 b286 b287 b288 b289 b290 b291 b292 b293 b294 b295 b296
 b297 b298 b299 b300 b301 b302 b303 b304 b305 b306 b307 b308 b309 b310 b311 b312 b313 b314 b315
 b316 b317 b318 b319 b320 b321 b322 b323 b324 b325 b326 b327 b328 b329 b330 b331 b332 b333 b334
 b335 b336 b337 b338 b339 b340 b341 b342 b343 b344 b345 b346 b347 b348 b349 b350 b351 b352 b353
 b354 b355 b356 b357 b358 b359 b360 b361 b362 b363 b364 b365 b366 b367 b368 b369 b370 b371 b372
 b373 b374 b375 b376 b377 b378 b379 b380 b381 b382 b383 b384

End
