\ Equation counts
\     Total        E        G        L        N        X        C        B
\        86       74       12        0        0        0        0        0
\ 
\ Variable counts
\                  x        b        i      s1s      s2s       sc       si
\     Total     cont   binary  integer     sos1     sos2    scont     sint
\       156      156        0        0        0        0        0        0
\ 
\ Nonzero counts
\     Total    const       NL      DLL
\      1007      437      570        0
\ 
Minimize
 obj: x2 + x3 + x4 + x5 + x6 + x7 + x8 + x9 + x10 + x11 + x12 + x13 + x14 + x15 + x16 + x17 + x18 + x19 
  + x20 + x21 + x22 + x23 + x24 + x25 + x26 + x27 + x28 + x29 + x30 + x31 + x32 + x33 + x34 + x35 + x36 
  + 0 x37 + 0 x38 + 0 x39 + 0 x40 + 0 x41 + 0 x42 + 0 x43 + 0 x44 + 0 x45 + 0 x46 + 0 x47 + 0 x48 + 0 x49 
  + 0 x50 + 0 x51 + 0 x52 + 0 x53 + 0 x54 + 0 x55 + 0 x56 + 0 x57 + 0 x58 + 0 x59 + 0 x60 + 0 x61 + 0 x62 
  + 0 x63 + 0 x64 + 0 x65 + 0 x66 + 0 x67 + 0 x68 + 0 x69 + 0 x70 + 0 x71 + 0 x72 + 0 x73 + 0 x74 + 0 x75 
  + 0 x76 + 0 x77 + 0 x78 + 0 x79 + 0 x80 + 0 x81 + 0 x82 + 0 x83 + 0 x84 + 0 x85 + 0 x86 + 0 x87 + 0 x88 
  + 0 x89 + 0 x90 + 0 x91 + 0 x92 + 0 x93 + 0 x94 + 0 x95 + 0 x96 + 0 x97 + 0 x98 + 0 x99 + 0 x100 + 0 x101 
  + 0 x102 + 0 x103 + 0 x104 + 0 x105 + 0 x106 + 0 x107 + 0 x108 + 0 x109 + 0 x110 + 0 x111 + 0 x112 
  + 0 x113 + 0 x114 + 0 x115 + 0 x116 + 0 x117 + 0 x118 + 0 x119 + 0 x120 + 0 x121 + 0 x122 + 0 x123 
  + 0 x124 + 0 x125 + 0 x126 + 0 x127 + 0 x128 + 0 x129 + 0 x130 + 0 x131 + 0 x132 + 0 x133 + 0 x134 
  + 0 x135 + 0 x136 + 0 x137 + 0 x138 + 0 x139 + 0 x140 + 0 x141 + 0 x142 + 0 x143 + 0 x144 + 0 x145 
  + 0 x146 + 0 x147 + 0 x148 + 0 x149 + 0 x150 + 0 x151 + 0 x152 + 0 x153 + 0 x154 + 0 x155 + 0 x156 
  + 0 x157

Subject To
 e2: - x2 - x9 - x16 - x23 - x30 + x97 - x98 - x99 - x100 - x101 - x102 - x103 - x104 = 0
 e3: - x3 - x10 - x17 - x24 - x31 + x105 - x106 - x107 - x108 - x109 - x110 - x111 - x112 = 0
 e4: - x4 - x11 - x18 - x25 - x32 + x113 - x114 - x115 - x116 - x117 - x118 - x119 - x120 = 0
 e5: - x5 - x12 - x19 - x26 - x33 + x121 - x122 - x123 - x124 - x125 - x126 - x127 - x128 = 0
 e6: - x6 - x13 - x20 - x27 - x34 + x129 - x130 - x131 - x132 - x133 - x134 - x135 - x136 = 0
 e7: - x7 - x14 - x21 - x28 - x35 - x137 - x138 - x139 - x140 - x141 - x142 - x143 = -68
 e8: - x8 - x15 - x22 - x29 - x36 - x144 - x145 - x146 - x147 - x148 - x149 - x150 = -70
 e9: x97 - x98 - x106 - x114 - x122 - x130 - x137 - x144 - x151 = 0
 e10: - x99 + x105 - x107 - x115 - x123 - x131 - x138 - x145 - x152 = 0
 e11: - x100 - x108 + x113 - x116 - x124 - x132 - x139 - x146 - x153 = 0
 e12: - x101 - x109 - x117 + x121 - x125 - x133 - x140 - x147 - x154 = 0
 e13: - x102 - x110 - x118 - x126 + x129 - x134 - x141 - x148 - x155 = 0
 e14: - x103 - x111 - x119 - x127 - x135 - x142 - x149 - x156 = -58
 e15: - x104 - x112 - x120 - x128 - x136 - x143 - x150 - x157 = -120
 e16: - 4 x2 - 4 x9 - 4 x23 - 2 x30 - 112 x103 - 491 x104 + [ x37 * x97 - x67 * x98 - x73 * x99 - x79 * x100 
  - x85 * x101 - x91 * x102 ] = 0
 e17: - 5 x2 - 6 x9 - 6 x16 - 6 x30 - 429 x103 - 476 x104 + [ x38 * x97 - x68 * x98 - x74 * x99 - x80 * x100 
  - x86 * x101 - x92 * x102 ] = 0
 e18: - 2 x9 - 4 x16 - 2 x23 - 2 x30 - 505 x103 - 197 x104 + [ x39 * x97 - x69 * x98 - x75 * x99 - x81 * x100 
  - x87 * x101 - x93 * x102 ] = 0
 e19: - 8 x2 - 7 x9 - 5 x16 - 7 x23 - 5 x30 - 266 x103 - 493 x104 + [ x40 * x97 - x70 * x98 - x76 * x99 
  - x82 * x100 - x88 * x101 - x94 * x102 ] = 0
 e20: - 2 x9 - x16 - 2 x23 - 3 x30 - 481 x103 - 399 x104 + [ x41 * x97 - x71 * x98 - x77 * x99 - x83 * x100 
  - x89 * x101 - x95 * x102 ] = 0
 e21: - 4 x2 - x16 - x30 - 505 x103 - 495 x104 + [ x42 * x97 - x72 * x98 - x78 * x99 - x84 * x100 - x90 * x101 
  - x96 * x102 ] = 0
 e22: - 4 x3 - 4 x10 - 4 x24 - 2 x31 - 112 x111 - 491 x112 + [ x43 * x105 - x67 * x106 - x73 * x107 - x79 * x108 
  - x85 * x109 - x91 * x110 ] = 0
 e23: - 5 x3 - 6 x10 - 6 x17 - 6 x31 - 429 x111 - 476 x112 + [ x44 * x105 - x68 * x106 - x74 * x107 - x80 * x108 
  - x86 * x109 - x92 * x110 ] = 0
 e24: - 2 x10 - 4 x17 - 2 x24 - 2 x31 - 505 x111 - 197 x112 + [ x45 * x105 - x69 * x106 - x75 * x107 
  - x81 * x108 - x87 * x109 - x93 * x110 ] = 0
 e25: - 8 x3 - 7 x10 - 5 x17 - 7 x24 - 5 x31 - 266 x111 - 493 x112 + [ x46 * x105 - x70 * x106 - x76 * x107 
  - x82 * x108 - x88 * x109 - x94 * x110 ] = 0
 e26: - 2 x10 - x17 - 2 x24 - 3 x31 - 481 x111 - 399 x112 + [ x47 * x105 - x71 * x106 - x77 * x107 - x83 * x108 
  - x89 * x109 - x95 * x110 ] = 0
 e27: - 4 x3 - x17 - x31 - 505 x111 - 495 x112 + [ x48 * x105 - x72 * x106 - x78 * x107 - x84 * x108 
  - x90 * x109 - x96 * x110 ] = 0
 e28: - 4 x4 - 4 x11 - 4 x25 - 2 x32 - 112 x119 - 491 x120 + [ x49 * x113 - x67 * x114 - x73 * x115 - x79 * x116 
  - x85 * x117 - x91 * x118 ] = 0
 e29: - 5 x4 - 6 x11 - 6 x18 - 6 x32 - 429 x119 - 476 x120 + [ x50 * x113 - x68 * x114 - x74 * x115 - x80 * x116 
  - x86 * x117 - x92 * x118 ] = 0
 e30: - 2 x11 - 4 x18 - 2 x25 - 2 x32 - 505 x119 - 197 x120 + [ x51 * x113 - x69 * x114 - x75 * x115 
  - x81 * x116 - x87 * x117 - x93 * x118 ] = 0
 e31: - 8 x4 - 7 x11 - 5 x18 - 7 x25 - 5 x32 - 266 x119 - 493 x120 + [ x52 * x113 - x70 * x114 - x76 * x115 
  - x82 * x116 - x88 * x117 - x94 * x118 ] = 0
 e32: - 2 x11 - x18 - 2 x25 - 3 x32 - 481 x119 - 399 x120 + [ x53 * x113 - x71 * x114 - x77 * x115 - x83 * x116 
  - x89 * x117 - x95 * x118 ] = 0
 e33: - 4 x4 - x18 - x32 - 505 x119 - 495 x120 + [ x54 * x113 - x72 * x114 - x78 * x115 - x84 * x116 
  - x90 * x117 - x96 * x118 ] = 0
 e34: - 4 x5 - 4 x12 - 4 x26 - 2 x33 - 112 x127 - 491 x128 + [ x55 * x121 - x67 * x122 - x73 * x123 - x79 * x124 
  - x85 * x125 - x91 * x126 ] = 0
 e35: - 5 x5 - 6 x12 - 6 x19 - 6 x33 - 429 x127 - 476 x128 + [ x56 * x121 - x68 * x122 - x74 * x123 - x80 * x124 
  - x86 * x125 - x92 * x126 ] = 0
 e36: - 2 x12 - 4 x19 - 2 x26 - 2 x33 - 505 x127 - 197 x128 + [ x57 * x121 - x69 * x122 - x75 * x123 
  - x81 * x124 - x87 * x125 - x93 * x126 ] = 0
 e37: - 8 x5 - 7 x12 - 5 x19 - 7 x26 - 5 x33 - 266 x127 - 493 x128 + [ x58 * x121 - x70 * x122 - x76 * x123 
  - x82 * x124 - x88 * x125 - x94 * x126 ] = 0
 e38: - 2 x12 - x19 - 2 x26 - 3 x33 - 481 x127 - 399 x128 + [ x59 * x121 - x71 * x122 - x77 * x123 - x83 * x124 
  - x89 * x125 - x95 * x126 ] = 0
 e39: - 4 x5 - x19 - x33 - 505 x127 - 495 x128 + [ x60 * x121 - x72 * x122 - x78 * x123 - x84 * x124 
  - x90 * x125 - x96 * x126 ] = 0
 e40: - 4 x6 - 4 x13 - 4 x27 - 2 x34 - 112 x135 - 491 x136 + [ x61 * x129 - x67 * x130 - x73 * x131 - x79 * x132 
  - x85 * x133 - x91 * x134 ] = 0
 e41: - 5 x6 - 6 x13 - 6 x20 - 6 x34 - 429 x135 - 476 x136 + [ x62 * x129 - x68 * x130 - x74 * x131 - x80 * x132 
  - x86 * x133 - x92 * x134 ] = 0
 e42: - 2 x13 - 4 x20 - 2 x27 - 2 x34 - 505 x135 - 197 x136 + [ x63 * x129 - x69 * x130 - x75 * x131 
  - x81 * x132 - x87 * x133 - x93 * x134 ] = 0
 e43: - 8 x6 - 7 x13 - 5 x20 - 7 x27 - 5 x34 - 266 x135 - 493 x136 + [ x64 * x129 - x70 * x130 - x76 * x131 
  - x82 * x132 - x88 * x133 - x94 * x134 ] = 0
 e44: - 2 x13 - x20 - 2 x27 - 3 x34 - 481 x135 - 399 x136 + [ x65 * x129 - x71 * x130 - x77 * x131 - x83 * x132 
  - x89 * x133 - x95 * x134 ] = 0
 e45: - 4 x6 - x20 - x34 - 505 x135 - 495 x136 + [ x66 * x129 - x72 * x130 - x78 * x131 - x84 * x132 
  - x90 * x133 - x96 * x134 ] = 0
 e46: - 4 x7 - 4 x14 - 4 x28 - 2 x35 - 112 x142 - 491 x143 + [ - x67 * x137 - x73 * x138 - x79 * x139 
  - x85 * x140 - x91 * x141 ] >= -2924
 e47: - 5 x7 - 6 x14 - 6 x21 - 6 x35 - 429 x142 - 476 x143 + [ - x68 * x137 - x74 * x138 - x80 * x139 
  - x86 * x140 - x92 * x141 ] >= -23256
 e48: - 2 x14 - 4 x21 - 2 x28 - 2 x35 - 505 x142 - 197 x143 + [ - x69 * x137 - x75 * x138 - x81 * x139 
  - x87 * x140 - x93 * x141 ] >= -15776
 e49: - 8 x7 - 7 x14 - 5 x21 - 7 x28 - 5 x35 - 266 x142 - 493 x143 + [ - x70 * x137 - x76 * x138 - x82 * x139 
  - x88 * x140 - x94 * x141 ] >= -18020
 e50: - 2 x14 - x21 - 2 x28 - 3 x35 - 481 x142 - 399 x143 + [ - x71 * x137 - x77 * x138 - x83 * x139 
  - x89 * x140 - x95 * x141 ] >= -26724
 e51: - 4 x7 - x21 - x35 - 505 x142 - 495 x143 + [ - x72 * x137 - x78 * x138 - x84 * x139 - x90 * x140 
  - x96 * x141 ] >= -20332
 e52: - 4 x8 - 4 x15 - 4 x29 - 2 x36 - 112 x149 - 491 x150 + [ - x67 * x144 - x73 * x145 - x79 * x146 
  - x85 * x147 - x91 * x148 ] >= -31640
 e53: - 5 x8 - 6 x15 - 6 x22 - 6 x36 - 429 x149 - 476 x150 + [ - x68 * x144 - x74 * x145 - x80 * x146 
  - x86 * x147 - x92 * x148 ] >= -4480
 e54: - 2 x15 - 4 x22 - 2 x29 - 2 x36 - 505 x149 - 197 x150 + [ - x69 * x144 - x75 * x145 - x81 * x146 
  - x87 * x147 - x93 * x148 ] >= -700
 e55: - 8 x8 - 7 x15 - 5 x22 - 7 x29 - 5 x36 - 266 x149 - 493 x150 + [ - x70 * x144 - x76 * x145 - x82 * x146 
  - x88 * x147 - x94 * x148 ] >= -23380
 e56: - 2 x15 - x22 - 2 x29 - 3 x36 - 481 x149 - 399 x150 + [ - x71 * x144 - x77 * x145 - x83 * x146 
  - x89 * x147 - x95 * x148 ] >= -10010
 e57: - 4 x8 - x22 - x36 - 505 x149 - 495 x150 + [ - x72 * x144 - x78 * x145 - x84 * x146 - x90 * x147 
  - x96 * x148 ] >= -17080
 e58: [ x37 * x97 - x67 * x97 ] = -6016
 e59: [ x38 * x97 - x68 * x97 ] = -22272
 e60: [ x39 * x97 - x69 * x97 ] = -15744
 e61: [ x40 * x97 - x70 * x97 ] = -256
 e62: [ x41 * x97 - x71 * x97 ] = -10752
 e63: [ x42 * x97 - x72 * x97 ] = -6400
 e64: [ x43 * x105 - x73 * x105 ] = -4250
 e65: [ x44 * x105 - x74 * x105 ] = -3230
 e66: [ x45 * x105 - x75 * x105 ] = -1870
 e67: [ x46 * x105 - x76 * x105 ] = -84796
 e68: [ x47 * x105 - x77 * x105 ] = -884
 e69: [ x48 * x105 - x78 * x105 ] = -3332
 e70: [ x49 * x113 - x79 * x113 ] = -10080
 e71: [ x50 * x113 - x80 * x113 ] = -4914
 e72: [ x51 * x113 - x81 * x113 ] = -46242
 e73: [ x52 * x113 - x82 * x113 ] = -5418
 e74: [ x53 * x113 - x83 * x113 ] = -16506
 e75: [ x54 * x113 - x84 * x113 ] = -4284
 e76: [ x55 * x121 - x85 * x121 ] = -756
 e77: [ x56 * x121 - x86 * x121 ] = -9576
 e78: [ x57 * x121 - x87 * x121 ] = -8540
 e79: [ x58 * x121 - x88 * x121 ] = -11424
 e80: [ x59 * x121 - x89 * x121 ] = -3780
 e81: [ x60 * x121 - x90 * x121 ] = -5908
 e82: [ x61 * x129 - x91 * x129 ] = -60000
 e83: [ x62 * x129 - x92 * x129 ] = -421440
 e84: [ x63 * x129 - x93 * x129 ] = -16800
 e85: [ x64 * x129 - x94 * x129 ] = -4200
 e86: [ x65 * x129 - x95 * x129 ] = -18960
 e87: [ x66 * x129 - x96 * x129 ] = -9360

Bounds
 x2 <= 100000
 x3 <= 100000
 x4 <= 100000
 x5 <= 100000
 x6 <= 100000
 x7 <= 100000
 x8 <= 100000
 x9 <= 100000
 x10 <= 100000
 x11 <= 100000
 x12 <= 100000
 x13 <= 100000
 x14 <= 100000
 x15 <= 100000
 x16 <= 100000
 x17 <= 100000
 x18 <= 100000
 x19 <= 100000
 x20 <= 100000
 x21 <= 100000
 x22 <= 100000
 x23 <= 100000
 x24 <= 100000
 x25 <= 100000
 x26 <= 100000
 x27 <= 100000
 x28 <= 100000
 x29 <= 100000
 x30 <= 100000
 x31 <= 100000
 x32 <= 100000
 x33 <= 100000
 x34 <= 100000
 x35 <= 100000
 x36 <= 100000
 x37 <= 45
 x38 <= 52
 x39 <= 189
 x40 <= 33
 x41 <= 210
 x42 <= 24
 x43 <= 120
 x44 <= 30
 x45 <= 30
 x46 <= 12234
 x47 <= 98
 x48 <= 656
 x49 <= 142
 x50 <= 420
 x51 <= 200
 x52 <= 13
 x53 <= 637
 x54 <= 24
 x55 <= 20
 x56 <= 25
 x57 <= 15
 x58 <= 25
 x59 <= 454
 x60 <= 256
 x61 <= 350
 x62 <= 48
 x63 <= 260
 x64 <= 21
 x65 <= 278
 x66 <= 12
 x67 <= 139
 x68 <= 400
 x69 <= 435
 x70 <= 37
 x71 <= 378
 x72 <= 124
 x73 <= 245
 x74 <= 125
 x75 <= 85
 x76 <= 14728
 x77 <= 124
 x78 <= 754
 x79 <= 222
 x80 <= 459
 x81 <= 567
 x82 <= 56
 x83 <= 768
 x84 <= 58
 x85 <= 47
 x86 <= 367
 x87 <= 320
 x88 <= 433
 x89 <= 589
 x90 <= 467
 x91 <= 850
 x92 <= 3560
 x93 <= 400
 x94 <= 56
 x95 <= 436
 x96 <= 90
 x97 <= 64
 x98 <= 100000
 x99 <= 100000
 x100 <= 100000
 x101 <= 100000
 x102 <= 100000
 x103 <= 100000
 x104 <= 100000
 x105 <= 34
 x106 <= 100000
 x107 <= 100000
 x108 <= 100000
 x109 <= 100000
 x110 <= 100000
 x111 <= 100000
 x112 <= 100000
 x113 <= 126
 x114 <= 100000
 x115 <= 100000
 x116 <= 100000
 x117 <= 100000
 x118 <= 100000
 x119 <= 100000
 x120 <= 100000
 x121 <= 28
 x122 <= 100000
 x123 <= 100000
 x124 <= 100000
 x125 <= 100000
 x126 <= 100000
 x127 <= 100000
 x128 <= 100000
 x129 <= 120
 x130 <= 100000
 x131 <= 100000
 x132 <= 100000
 x133 <= 100000
 x134 <= 100000
 x135 <= 100000
 x136 <= 100000
 x137 <= 100000
 x138 <= 100000
 x139 <= 100000
 x140 <= 100000
 x141 <= 100000
 x142 <= 100000
 x143 <= 100000
 x144 <= 100000
 x145 <= 100000
 x146 <= 100000
 x147 <= 100000
 x148 <= 100000
 x149 <= 100000
 x150 <= 100000
 x151 <= 100000
 x152 <= 100000
 x153 <= 100000
 x154 <= 100000
 x155 <= 100000
 x156 <= 100000
 x157 <= 100000

End
