\ Equation counts
\     Total        E        G        L        N        X        C        B
\       270      180        0       90        0        0        0        0
\ 
\ Variable counts
\                  x        b        i      s1s      s2s       sc       si
\     Total     cont   binary  integer     sos1     sos2    scont     sint
\       275      185       90        0        0        0        0        0
\ 
\ Nonzero counts
\     Total    const       NL      DLL
\       984      804      180        0
\ 
Minimize
 obj: b2 + b3 + b4 + b5 + b6 + b7 + b8 + b9 + b10 + b11 + b12 + b13 + b14 + b15 + b16 + b17 + b18 + b19 
  + b20 + b21 + b22 + b23 + b24 + b25 + b26 + b27 + b28 + b29 + b30 + b31 + b32 + b33 + b34 + b35 + b36 
  + b37 + b38 + b39 + b40 + b41 + b42 + b43 + b44 + b45 + b46 + b47 + b48 + b49 + b50 + b51 + b52 + b53 
  + b54 + b55 + b56 + b57 + b58 + b59 + b60 + b61 + b62 + b63 + b64 + b65 + b66 + b67 + b68 + b69 + b70 
  + b71 + b72 + b73 + b74 + b75 + b76 + b77 + b78 + b79 + b80 + b81 + b82 + b83 + b84 + b85 + b86 + b87 
  + b88 + b89 + b90 + b91 + 0 x92 + 0 x93 + 0 x94 + 0 x95 + 0 x96 + 0 x97 + 0 x98 + 0 x99 + 0 x100 + 0 x101 
  + 0 x102 + 0 x103 + 0 x104 + 0 x105 + 0 x106 + 0 x107 + 0 x108 + 0 x109 + 0 x110 + 0 x111 + 0 x112 
  + 0 x113 + 0 x114 + 0 x115 + 0 x116 + 0 x117 + 0 x118 + 0 x119 + 0 x120 + 0 x121 + 0 x122 + 0 x123 
  + 0 x124 + 0 x125 + 0 x126 + 0 x127 + 0 x128 + 0 x129 + 0 x130 + 0 x131 + 0 x132 + 0 x133 + 0 x134 
  + 0 x135 + 0 x136 + 0 x137 + 0 x138 + 0 x139 + 0 x140 + 0 x141 + 0 x142 + 0 x143 + 0 x144 + 0 x145 
  + 0 x146 + 0 x147 + 0 x148 + 0 x149 + 0 x150 + 0 x151 + 0 x152 + 0 x153 + 0 x154 + 0 x155 + 0 x156 
  + 0 x157 + 0 x158 + 0 x159 + 0 x160 + 0 x161 + 0 x162 + 0 x163 + 0 x164 + 0 x165 + 0 x166 + 0 x167 
  + 0 x168 + 0 x169 + 0 x170 + 0 x171 + 0 x172 + 0 x173 + 0 x174 + 0 x175 + 0 x176 + 0 x177 + 0 x178 
  + 0 x179 + 0 x180 + 0 x181 + 0 x182 + 0 x183 + 0 x184 + 0 x185 + 0 x186 + 0 x187 + 0 x188 + 0 x189 
  + 0 x190 + 0 x191 + 0 x192 + 0 x193 + 0 x194 + 0 x195 + 0 x196 + 0 x197 + 0 x198 + 0 x199 + 0 x200 
  + 0 x201 + 0 x202 + 0 x203 + 0 x204 + 0 x205 + 0 x206 + 0 x207 + 0 x208 + 0 x209 + 0 x210 + 0 x211 
  + 0 x212 + 0 x213 + 0 x214 + 0 x215 + 0 x216 + 0 x217 + 0 x218 + 0 x219 + 0 x220 + 0 x221 + 0 x222 
  + 0 x223 + 0 x224 + 0 x225 + 0 x226 + 0 x227 + 0 x228 + 0 x229 + 0 x230 + 0 x231 + 0 x232 + 0 x233 
  + 0 x234 + 0 x235 + 0 x236 + 0 x237 + 0 x238 + 0 x239 + 0 x240 + 0 x241 + 0 x242 + 0 x243 + 0 x244 
  + 0 x245 + 0 x246 + 0 x247 + 0 x248 + 0 x249 + 0 x250 + 0 x251 + 0 x252 + 0 x253 + 0 x254 + 0 x255 
  + 0 x256 + 0 x257 + 0 x258 + 0 x259 + 0 x260 + 0 x261 + 0 x262 + 0 x263 + 0 x264 + 0 x265 + 0 x266 
  + 0 x267 + 0 x268 + 0 x269 + 0 x270 + 0 x271 + 0 x272 + 0 x273 + 0 x274 + 0 x275 + 0 x276

Subject To
 e2: - 66 x92 + 49 x93 - 81 x94 + 73 x95 + 15 x96 - x97 <= 56
 e3: 38 x92 - 26 x93 + 74 x94 + 48 x95 - 11 x96 - x98 <= -29
 e4: 46 x92 - 48 x93 - 21 x94 + 55 x95 + 68 x96 - x99 <= 14
 e5: 42 x92 - 84 x93 - 9 x94 - 78 x95 + 8 x96 - x100 <= -22
 e6: 13 x92 + 91 x93 + 73 x94 - 68 x95 - 45 x96 - x101 <= -48
 e7: 84 x92 - 13 x93 + 57 x94 - 75 x95 - 84 x96 - x102 <= 88
 e8: - 95 x92 - 70 x93 - 24 x94 - 69 x95 + 5 x96 - x103 <= 75
 e9: - 14 x92 - 47 x93 - 37 x94 + 53 x95 - 79 x96 - x104 <= 53
 e10: 40 x92 - 57 x93 + 52 x94 - 18 x95 + 29 x96 - x105 <= 85
 e11: 37 x93 - 13 x94 + 21 x95 + 14 x96 - x106 <= 26
 e12: - 7 x92 + 26 x93 - 73 x94 + 92 x95 - 71 x96 - x107 <= -11
 e13: - 35 x92 + 90 x93 - 29 x94 - 20 x95 - 80 x96 - x108 <= 90
 e14: 96 x92 + 14 x93 + 73 x94 - 70 x95 + 81 x96 - x109 <= 29
 e15: - 88 x92 + 90 x93 + 93 x94 + 56 x95 + 60 x96 - x110 <= 13
 e16: - 44 x92 + 92 x93 + 15 x94 - 13 x95 - 25 x96 - x111 <= 84
 e17: - 95 x92 + 53 x93 + 44 x94 + 17 x95 - 15 x96 - x112 <= 28
 e18: 49 x92 - 87 x93 - 90 x94 + 54 x95 + 40 x96 - x113 <= -76
 e19: - 40 x92 - 86 x93 + 37 x94 - 27 x95 + 45 x96 - x114 <= -61
 e20: - 69 x92 - 68 x93 + 66 x94 + 9 x95 - 37 x96 - x115 <= 5
 e21: - 13 x92 - 58 x93 + 45 x94 - 100 x95 + 16 x96 - x116 <= -5
 e22: 87 x92 + 52 x93 - 75 x94 - 98 x95 - x117 <= 68
 e23: 70 x92 - 82 x93 + 71 x94 + 57 x95 + 15 x96 - x118 <= -81
 e24: 65 x92 + 49 x93 + 81 x94 + x95 + 76 x96 - x119 <= 92
 e25: 12 x92 - 5 x93 - 17 x94 + 29 x95 + 75 x96 - x120 <= 16
 e26: - 56 x92 + 99 x93 - 69 x94 + 38 x95 + 40 x96 - x121 <= 97
 e27: 29 x92 + 30 x93 + 68 x94 + 36 x95 + 93 x96 - x122 <= -34
 e28: 59 x92 - 68 x93 + 72 x94 + 20 x95 - 16 x96 - x123 <= 96
 e29: 73 x92 - 7 x93 - 51 x94 + 68 x95 + 68 x96 - x124 <= 47
 e30: - 74 x92 - 5 x93 + 56 x94 + 13 x96 - x125 <= -11
 e31: - 93 x92 - 34 x93 - 15 x94 + 16 x95 - 83 x96 - x126 <= 34
 e32: 17 x92 - 53 x93 + 48 x94 + 91 x95 + 72 x96 - x127 <= -86
 e33: 7 x92 - 24 x93 - 100 x94 + 43 x95 - 90 x96 - x128 <= -96
 e34: 51 x92 + 25 x93 + 86 x94 + 9 x95 - 17 x96 - x129 <= -22
 e35: - 61 x92 - 39 x93 - 58 x94 + 21 x95 - 26 x96 - x130 <= -68
 e36: - 8 x92 + 60 x93 - 64 x94 + 43 x95 - 5 x96 - x131 <= -72
 e37: 26 x92 - 52 x93 - 76 x94 + 74 x95 - 80 x96 - x132 <= 50
 e38: - 24 x92 + 10 x93 - 85 x94 - 25 x95 + 24 x96 - x133 <= 57
 e39: - 16 x92 + 64 x93 + 9 x94 + 45 x95 - 2 x96 - x134 <= -48
 e40: - 2 x93 - 2 x94 + 69 x95 + 83 x96 - x135 <= -28
 e41: 8 x92 + 20 x93 + 21 x94 - 12 x95 + 41 x96 - x136 <= -57
 e42: 52 x92 - 39 x93 + 57 x94 - 82 x95 + 79 x96 - x137 <= 86
 e43: 93 x92 + 23 x93 - 87 x94 - 78 x95 + 25 x96 - x138 <= -86
 e44: 11 x92 - 53 x93 + 22 x94 + 86 x95 + 13 x96 - x139 <= 14
 e45: - 7 x92 - 76 x93 - 53 x94 + 99 x95 + 11 x96 - x140 <= 72
 e46: - 43 x92 + 45 x93 + 64 x94 - 2 x95 + 18 x96 - x141 <= -78
 e47: - 69 x92 + 39 x93 + 18 x94 + 76 x95 - 14 x96 - x142 <= -58
 e48: - 64 x92 + 37 x93 - 57 x94 - 47 x95 - 56 x96 - x143 <= -1
 e49: - 47 x92 - 11 x93 - 53 x94 - 41 x95 + 29 x96 - x144 <= 49
 e50: 38 x92 - 15 x93 + 51 x94 - 20 x95 - 25 x96 - x145 <= 27
 e51: 6 x92 + 79 x93 + 30 x94 + 86 x95 - 99 x96 - x146 <= -66
 e52: 28 x92 + 52 x93 + 34 x94 + 53 x95 + 50 x96 - x147 <= 79
 e53: - 57 x92 + 26 x93 + 19 x94 + 24 x95 - 27 x96 - x148 <= -86
 e54: - 50 x92 - 28 x93 - 3 x94 - 42 x96 - x149 <= -53
 e55: 32 x92 + 79 x93 + 33 x94 - 92 x95 + 67 x96 - x150 <= 13
 e56: - 64 x92 - 95 x93 - 5 x94 + 12 x95 - 67 x96 - x151 <= 21
 e57: 28 x92 - 39 x93 + 91 x94 + 52 x95 + 26 x96 - x152 <= -87
 e58: - 74 x92 + 51 x93 - 4 x94 + 42 x95 - 77 x96 - x153 <= 27
 e59: - 20 x92 + 40 x93 + 56 x94 + 40 x95 - 47 x96 - x154 <= 55
 e60: - 74 x92 - 45 x93 - 84 x94 - 58 x95 - 61 x96 - x155 <= 23
 e61: 20 x92 + 9 x93 + 13 x94 - 75 x95 - 86 x96 - x156 <= 76
 e62: - 70 x92 + 12 x93 - 37 x94 - 33 x95 - 59 x96 - x157 <= 34
 e63: - 93 x92 - 92 x93 + 63 x94 - 88 x95 + 41 x96 - x158 <= -18
 e64: 77 x92 + 87 x93 - 100 x94 - 30 x95 + 87 x96 - x159 <= 98
 e65: - 28 x92 + 95 x93 - 95 x94 - 32 x95 + 69 x96 - x160 <= -12
 e66: 40 x92 + 13 x93 - 80 x94 - 64 x95 - 52 x96 - x161 <= 36
 e67: 97 x92 + 2 x93 + 80 x94 - 7 x95 - 5 x96 - x162 <= -19
 e68: 51 x92 - 77 x93 - 71 x94 + 39 x95 - 48 x96 - x163 <= 5
 e69: - 87 x92 - 71 x93 - 18 x94 - 84 x95 + 27 x96 - x164 <= -97
 e70: - 52 x92 + 15 x93 - 68 x94 - 47 x95 - 85 x96 - x165 <= -71
 e71: - 83 x92 - 72 x93 - 6 x94 + 44 x95 - 5 x96 - x166 <= 11
 e72: - x92 - 84 x93 - 41 x94 - 41 x95 - 34 x96 - x167 <= -83
 e73: - 81 x92 - 60 x93 - 79 x94 - 66 x95 + 66 x96 - x168 <= 65
 e74: 84 x92 + 6 x93 - 6 x94 + 39 x95 + x96 - x169 <= 53
 e75: 96 x92 - 7 x93 + 33 x94 + 78 x95 + 70 x96 - x170 <= 50
 e76: 42 x92 - 83 x93 + 59 x94 - 25 x95 - 9 x96 - x171 <= -27
 e77: 55 x92 + 19 x93 - 89 x94 - 76 x95 + 11 x96 - x172 <= 30
 e78: - 88 x92 + 4 x93 + 68 x94 - 69 x95 - 100 x96 - x173 <= 79
 e79: - 57 x92 - 63 x93 + 93 x94 + 63 x95 + 41 x96 - x174 <= 17
 e80: 35 x92 + 54 x93 - 54 x94 - 57 x95 - 26 x96 - x175 <= 64
 e81: - 68 x92 + 22 x93 - 76 x94 - 13 x95 - 100 x96 - x176 <= 3
 e82: - 8 x92 + 37 x93 - 94 x94 - 19 x95 - x177 <= -44
 e83: 99 x92 - 27 x93 - 26 x94 + 90 x95 - 84 x96 - x178 <= 22
 e84: 58 x92 - 29 x93 + 94 x94 - 64 x95 - 14 x96 - x179 <= 56
 e85: - 77 x92 + 6 x93 - 52 x94 + 22 x95 + 55 x96 - x180 <= -64
 e86: - 2 x92 + 86 x93 - 37 x94 - 28 x95 - 80 x96 - x181 <= -26
 e87: 77 x92 + 78 x93 + 97 x94 - 79 x95 - 70 x96 - x182 <= 87
 e88: 56 x92 + 75 x93 - 48 x94 - 75 x95 + 7 x96 - x183 <= -31
 e89: - 23 x92 - 26 x93 - 5 x94 + 45 x95 + 86 x96 - x184 <= -1
 e90: - 5 x92 + 91 x93 - 40 x94 - 10 x95 + 64 x96 - x185 <= -24
 e91: 45 x92 - 31 x93 + 31 x94 + 72 x95 + 32 x96 - x186 <= 60
 e92: - b2 - x187 = -1
 e93: - b3 - x188 = -1
 e94: - b4 - x189 = -1
 e95: - b5 - x190 = -1
 e96: - b6 - x191 = -1
 e97: - b7 - x192 = -1
 e98: - b8 - x193 = -1
 e99: - b9 - x194 = -1
 e100: - b10 - x195 = -1
 e101: - b11 - x196 = -1
 e102: - b12 - x197 = -1
 e103: - b13 - x198 = -1
 e104: - b14 - x199 = -1
 e105: - b15 - x200 = -1
 e106: - b16 - x201 = -1
 e107: - b17 - x202 = -1
 e108: - b18 - x203 = -1
 e109: - b19 - x204 = -1
 e110: - b20 - x205 = -1
 e111: - b21 - x206 = -1
 e112: - b22 - x207 = -1
 e113: - b23 - x208 = -1
 e114: - b24 - x209 = -1
 e115: - b25 - x210 = -1
 e116: - b26 - x211 = -1
 e117: - b27 - x212 = -1
 e118: - b28 - x213 = -1
 e119: - b29 - x214 = -1
 e120: - b30 - x215 = -1
 e121: - b31 - x216 = -1
 e122: - b32 - x217 = -1
 e123: - b33 - x218 = -1
 e124: - b34 - x219 = -1
 e125: - b35 - x220 = -1
 e126: - b36 - x221 = -1
 e127: - b37 - x222 = -1
 e128: - b38 - x223 = -1
 e129: - b39 - x224 = -1
 e130: - b40 - x225 = -1
 e131: - b41 - x226 = -1
 e132: - b42 - x227 = -1
 e133: - b43 - x228 = -1
 e134: - b44 - x229 = -1
 e135: - b45 - x230 = -1
 e136: - b46 - x231 = -1
 e137: - b47 - x232 = -1
 e138: - b48 - x233 = -1
 e139: - b49 - x234 = -1
 e140: - b50 - x235 = -1
 e141: - b51 - x236 = -1
 e142: - b52 - x237 = -1
 e143: - b53 - x238 = -1
 e144: - b54 - x239 = -1
 e145: - b55 - x240 = -1
 e146: - b56 - x241 = -1
 e147: - b57 - x242 = -1
 e148: - b58 - x243 = -1
 e149: - b59 - x244 = -1
 e150: - b60 - x245 = -1
 e151: - b61 - x246 = -1
 e152: - b62 - x247 = -1
 e153: - b63 - x248 = -1
 e154: - b64 - x249 = -1
 e155: - b65 - x250 = -1
 e156: - b66 - x251 = -1
 e157: - b67 - x252 = -1
 e158: - b68 - x253 = -1
 e159: - b69 - x254 = -1
 e160: - b70 - x255 = -1
 e161: - b71 - x256 = -1
 e162: - b72 - x257 = -1
 e163: - b73 - x258 = -1
 e164: - b74 - x259 = -1
 e165: - b75 - x260 = -1
 e166: - b76 - x261 = -1
 e167: - b77 - x262 = -1
 e168: - b78 - x263 = -1
 e169: - b79 - x264 = -1
 e170: - b80 - x265 = -1
 e171: - b81 - x266 = -1
 e172: - b82 - x267 = -1
 e173: - b83 - x268 = -1
 e174: - b84 - x269 = -1
 e175: - b85 - x270 = -1
 e176: - b86 - x271 = -1
 e177: - b87 - x272 = -1
 e178: - b88 - x273 = -1
 e179: - b89 - x274 = -1
 e180: - b90 - x275 = -1
 e181: - b91 - x276 = -1
 e182: [ x97 * x187 ] = 0
 e183: [ x98 * x188 ] = 0
 e184: [ x99 * x189 ] = 0
 e185: [ x100 * x190 ] = 0
 e186: [ x101 * x191 ] = 0
 e187: [ x102 * x192 ] = 0
 e188: [ x103 * x193 ] = 0
 e189: [ x104 * x194 ] = 0
 e190: [ x105 * x195 ] = 0
 e191: [ x106 * x196 ] = 0
 e192: [ x107 * x197 ] = 0
 e193: [ x108 * x198 ] = 0
 e194: [ x109 * x199 ] = 0
 e195: [ x110 * x200 ] = 0
 e196: [ x111 * x201 ] = 0
 e197: [ x112 * x202 ] = 0
 e198: [ x113 * x203 ] = 0
 e199: [ x114 * x204 ] = 0
 e200: [ x115 * x205 ] = 0
 e201: [ x116 * x206 ] = 0
 e202: [ x117 * x207 ] = 0
 e203: [ x118 * x208 ] = 0
 e204: [ x119 * x209 ] = 0
 e205: [ x120 * x210 ] = 0
 e206: [ x121 * x211 ] = 0
 e207: [ x122 * x212 ] = 0
 e208: [ x123 * x213 ] = 0
 e209: [ x124 * x214 ] = 0
 e210: [ x125 * x215 ] = 0
 e211: [ x126 * x216 ] = 0
 e212: [ x127 * x217 ] = 0
 e213: [ x128 * x218 ] = 0
 e214: [ x129 * x219 ] = 0
 e215: [ x130 * x220 ] = 0
 e216: [ x131 * x221 ] = 0
 e217: [ x132 * x222 ] = 0
 e218: [ x133 * x223 ] = 0
 e219: [ x134 * x224 ] = 0
 e220: [ x135 * x225 ] = 0
 e221: [ x136 * x226 ] = 0
 e222: [ x137 * x227 ] = 0
 e223: [ x138 * x228 ] = 0
 e224: [ x139 * x229 ] = 0
 e225: [ x140 * x230 ] = 0
 e226: [ x141 * x231 ] = 0
 e227: [ x142 * x232 ] = 0
 e228: [ x143 * x233 ] = 0
 e229: [ x144 * x234 ] = 0
 e230: [ x145 * x235 ] = 0
 e231: [ x146 * x236 ] = 0
 e232: [ x147 * x237 ] = 0
 e233: [ x148 * x238 ] = 0
 e234: [ x149 * x239 ] = 0
 e235: [ x150 * x240 ] = 0
 e236: [ x151 * x241 ] = 0
 e237: [ x152 * x242 ] = 0
 e238: [ x153 * x243 ] = 0
 e239: [ x154 * x244 ] = 0
 e240: [ x155 * x245 ] = 0
 e241: [ x156 * x246 ] = 0
 e242: [ x157 * x247 ] = 0
 e243: [ x158 * x248 ] = 0
 e244: [ x159 * x249 ] = 0
 e245: [ x160 * x250 ] = 0
 e246: [ x161 * x251 ] = 0
 e247: [ x162 * x252 ] = 0
 e248: [ x163 * x253 ] = 0
 e249: [ x164 * x254 ] = 0
 e250: [ x165 * x255 ] = 0
 e251: [ x166 * x256 ] = 0
 e252: [ x167 * x257 ] = 0
 e253: [ x168 * x258 ] = 0
 e254: [ x169 * x259 ] = 0
 e255: [ x170 * x260 ] = 0
 e256: [ x171 * x261 ] = 0
 e257: [ x172 * x262 ] = 0
 e258: [ x173 * x263 ] = 0
 e259: [ x174 * x264 ] = 0
 e260: [ x175 * x265 ] = 0
 e261: [ x176 * x266 ] = 0
 e262: [ x177 * x267 ] = 0
 e263: [ x178 * x268 ] = 0
 e264: [ x179 * x269 ] = 0
 e265: [ x180 * x270 ] = 0
 e266: [ x181 * x271 ] = 0
 e267: [ x182 * x272 ] = 0
 e268: [ x183 * x273 ] = 0
 e269: [ x184 * x274 ] = 0
 e270: [ x185 * x275 ] = 0
 e271: [ x186 * x276 ] = 0

Bounds
 x92 Free
 x93 Free
 x94 Free
 x95 Free
 x96 Free
 x187 Free
 x188 Free
 x189 Free
 x190 Free
 x191 Free
 x192 Free
 x193 Free
 x194 Free
 x195 Free
 x196 Free
 x197 Free
 x198 Free
 x199 Free
 x200 Free
 x201 Free
 x202 Free
 x203 Free
 x204 Free
 x205 Free
 x206 Free
 x207 Free
 x208 Free
 x209 Free
 x210 Free
 x211 Free
 x212 Free
 x213 Free
 x214 Free
 x215 Free
 x216 Free
 x217 Free
 x218 Free
 x219 Free
 x220 Free
 x221 Free
 x222 Free
 x223 Free
 x224 Free
 x225 Free
 x226 Free
 x227 Free
 x228 Free
 x229 Free
 x230 Free
 x231 Free
 x232 Free
 x233 Free
 x234 Free
 x235 Free
 x236 Free
 x237 Free
 x238 Free
 x239 Free
 x240 Free
 x241 Free
 x242 Free
 x243 Free
 x244 Free
 x245 Free
 x246 Free
 x247 Free
 x248 Free
 x249 Free
 x250 Free
 x251 Free
 x252 Free
 x253 Free
 x254 Free
 x255 Free
 x256 Free
 x257 Free
 x258 Free
 x259 Free
 x260 Free
 x261 Free
 x262 Free
 x263 Free
 x264 Free
 x265 Free
 x266 Free
 x267 Free
 x268 Free
 x269 Free
 x270 Free
 x271 Free
 x272 Free
 x273 Free
 x274 Free
 x275 Free
 x276 Free

Binary
 b2 b3 b4 b5 b6 b7 b8 b9 b10 b11 b12 b13 b14 b15 b16 b17 b18 b19 b20 b21 b22 b23 b24 b25 b26
 b27 b28 b29 b30 b31 b32 b33 b34 b35 b36 b37 b38 b39 b40 b41 b42 b43 b44 b45 b46 b47 b48 b49
 b50 b51 b52 b53 b54 b55 b56 b57 b58 b59 b60 b61 b62 b63 b64 b65 b66 b67 b68 b69 b70 b71 b72
 b73 b74 b75 b76 b77 b78 b79 b80 b81 b82 b83 b84 b85 b86 b87 b88 b89 b90 b91

End
