\ Equation counts
\     Total        E        G        L        N        X        C        B
\       893       32      370      491        0        0        0        0
\ 
\ Variable counts
\                  x        b        i      s1s      s2s       sc       si
\     Total     cont   binary  integer     sos1     sos2    scont     sint
\       360       72      216       72        0        0        0        0
\ 
\ Nonzero counts
\     Total    const       NL      DLL
\      4917     4159      758        0
\ 
Minimize
 obj: x2 + x3 + x4 + x5 + x6 + x7 + x8 + x9 + x10 + x11 + x12 + x13 + x14 + x15 + x16 + x17 + x18 + x19 
  + x20 + x21 + x22 + x23 + x24 + x25 + 10 x26 + 10 x27 + 10 x28 + 10 x29 + 10 x30 + 10 x31 + 10 x32 
  + 10 x33 + 0 i34 + 0 i35 + 0 i36 + 0 i37 + 0 i38 + 0 i39 + 0 i40 + 0 i41 + 0 i42 + 0 i43 + 0 i44 + 0 i45 
  + 0 i46 + 0 i47 + 0 i48 + 0 i49 + 0 i50 + 0 i51 + 0 i52 + 0 i53 + 0 i54 + 0 i55 + 0 i56 + 0 i57 + 0 i58 
  + 0 i59 + 0 i60 + 0 i61 + 0 i62 + 0 i63 + 0 i64 + 0 i65 + 0 i66 + 0 i67 + 0 i68 + 0 i69 + 0 i70 + 0 i71 
  + 0 i72 + 0 i73 + 0 i74 + 0 i75 + 0 i76 + 0 i77 + 0 i78 + 0 i79 + 0 i80 + 0 i81 + 0 i82 + 0 i83 + 0 i84 
  + 0 i85 + 0 i86 + 0 i87 + 0 i88 + 0 i89 + 0 i90 + 0 i91 + 0 i92 + 0 i93 + 0 i94 + 0 i95 + 0 i96 + 0 i97 
  + 0 i98 + 0 i99 + 0 i100 + 0 i101 + 0 i102 + 0 i103 + 0 i104 + 0 i105 + 0 x106 + 0 x107 + 0 x108 + 0 x109 
  + 0 x110 + 0 x111 + 0 x112 + 0 x113 + 0 x114 + 0 x115 + 0 x116 + 0 x117 + 0 x118 + 0 x119 + 0 x120 
  + 0 x121 + 0 x122 + 0 x123 + 0 x124 + 0 x125 + 0 x126 + 0 x127 + 0 x128 + 0 x129 + 0 x130 + 0 x131 
  + 0 x132 + 0 x133 + 0 x134 + 0 x135 + 0 x136 + 0 x137 + 0 b138 + 0 b139 + 0 b140 + 0 b141 + 0 b142 
  + 0 b143 + 0 b144 + 0 b145 + 0 b146 + 0 b147 + 0 b148 + 0 b149 + 0 b150 + 0 b151 + 0 b152 + 0 b153 
  + 0 b154 + 0 b155 + 0 b156 + 0 b157 + 0 b158 + 0 b159 + 0 b160 + 0 b161 + 0 b162 + 0 b163 + 0 b164 
  + 0 b165 + 0 b166 + 0 b167 + 0 b168 + 0 b169 + 0 b170 + 0 b171 + 0 b172 + 0 b173 + 0 b174 + 0 b175 
  + 0 b176 + 0 b177 + 0 b178 + 0 b179 + 0 b180 + 0 b181 + 0 b182 + 0 b183 + 0 b184 + 0 b185 + 0 b186 
  + 0 b187 + 0 b188 + 0 b189 + 0 b190 + 0 b191 + 0 b192 + 0 b193 + 0 b194 + 0 b195 + 0 b196 + 0 b197 
  + 0 b198 + 0 b199 + 0 b200 + 0 b201 + 0 b202 + 0 b203 + 0 b204 + 0 b205 + 0 b206 + 0 b207 + 0 b208 
  + 0 b209 + 0 b210 + 0 b211 + 0 b212 + 0 b213 + 0 b214 + 0 b215 + 0 b216 + 0 b217 + 0 b218 + 0 b219 
  + 0 b220 + 0 b221 + 0 b222 + 0 b223 + 0 b224 + 0 b225 + 0 b226 + 0 b227 + 0 b228 + 0 b229 + 0 b230 
  + 0 b231 + 0 b232 + 0 b233 + 0 b234 + 0 b235 + 0 b236 + 0 b237 + 0 b238 + 0 b239 + 0 b240 + 0 b241 
  + 0 b242 + 0 b243 + 0 b244 + 0 b245 + 0 b246 + 0 b247 + 0 b248 + 0 b249 + 0 b250 + 0 b251 + 0 b252 
  + 0 b253 + 0 b254 + 0 b255 + 0 b256 + 0 b257 + 0 b258 + 0 b259 + 0 b260 + 0 b261 + 0 b262 + 0 b263 
  + 0 b264 + 0 b265 + 0 b266 + 0 b267 + 0 b268 + 0 b269 + 0 b270 + 0 b271 + 0 b272 + 0 b273 + 0 b274 
  + 0 b275 + 0 b276 + 0 b277 + 0 b278 + 0 b279 + 0 b280 + 0 b281 + 0 b282 + 0 b283 + 0 b284 + 0 b285 
  + 0 b286 + 0 b287 + 0 b288 + 0 b289 + 0 b290 + 0 b291 + 0 b292 + 0 b293 + 0 b294 + 0 b295 + 0 b296 
  + 0 b297 + 0 b298 + 0 b299 + 0 b300 + 0 b301 + 0 b302 + 0 b303 + 0 b304 + 0 b305 + 0 b306 + 0 b307 
  + 0 b308 + 0 b309 + 0 b310 + 0 b311 + 0 b312 + 0 b313 + 0 b314 + 0 b315 + 0 b316 + 0 b317 + 0 b318 
  + 0 b319 + 0 b320 + 0 b321 + 0 b322 + 0 b323 + 0 b324 + 0 b325 + 0 b326 + 0 b327 + 0 b328 + 0 b329 
  + 0 b330 + 0 b331 + 0 b332 + 0 b333 + 0 b334 + 0 b335 + 0 b336 + 0 b337 + 0 b338 + 0 b339 + 0 b340 
  + 0 b341 + 0 b342 + 0 b343 + 0 b344 + 0 b345 + 0 b346 + 0 b347 + 0 b348 + 0 b349 + 0 b350 + 0 b351 
  + 0 b352 + 0 b353 + 0 x354 + 0 x355 + 0 x356 + 0 x357 + 0 x358 + 0 x359 + 0 x360 + 0 x361

Subject To
 e2: i34 + i35 + i36 + i37 + i38 + i39 + i40 + i41 + i42 <= 4
 e3: i43 + i44 + i45 + i46 + i47 + i48 + i49 + i50 + i51 <= 4
 e4: i52 + i53 + i54 + i55 + i56 + i57 + i58 + i59 + i60 <= 4
 e5: i61 + i62 + i63 + i64 + i65 + i66 + i67 + i68 + i69 <= 4
 e6: i70 + i71 + i72 + i73 + i74 + i75 + i76 + i77 + i78 <= 4
 e7: i79 + i80 + i81 + i82 + i83 + i84 + i85 + i86 + i87 <= 4
 e8: i88 + i89 + i90 + i91 + i92 + i93 + i94 + i95 + i96 <= 4
 e9: i97 + i98 + i99 + i100 + i101 + i102 + i103 + i104 + i105 <= 4
 e10: x2 - 0.1287 x106 + 0.1287 x107 >= 0
 e11: x3 + 0.19305 x107 - 0.19305 x108 >= 0
 e12: x4 + 0.1287 x107 - 0.1287 x109 >= 0
 e13: x5 - 0.1287 x110 + 0.1287 x111 >= 0
 e14: x6 + 0.19305 x111 - 0.19305 x112 >= 0
 e15: x7 + 0.1287 x111 - 0.1287 x113 >= 0
 e16: x8 - 0.1287 x114 + 0.1287 x115 >= 0
 e17: x9 + 0.19305 x115 - 0.19305 x116 >= 0
 e18: x10 + 0.1287 x115 - 0.1287 x117 >= 0
 e19: x11 - 0.1725 x118 + 0.1725 x119 >= 0
 e20: x12 + 0.22815 x119 - 0.22815 x120 >= 0
 e21: x13 + 0.1521 x119 - 0.1521 x121 >= 0
 e22: x14 - 0.1725 x122 + 0.1725 x123 >= 0
 e23: x15 + 0.22815 x123 - 0.22815 x124 >= 0
 e24: x16 + 0.1521 x123 - 0.1521 x125 >= 0
 e25: x17 - 0.1725 x126 + 0.1725 x127 >= 0
 e26: x18 + 0.22815 x127 - 0.22815 x128 >= 0
 e27: x19 + 0.1521 x127 - 0.1521 x129 >= 0
 e28: x20 - 0.1521 x130 + 0.1521 x131 >= 0
 e29: x21 + 0.19305 x131 - 0.19305 x132 >= 0
 e30: x22 + 0.1521 x131 - 0.1521 x133 >= 0
 e31: x23 - 0.1521 x134 + 0.1521 x135 >= 0
 e32: x24 + 0.19305 x135 - 0.19305 x136 >= 0
 e33: x25 + 0.1521 x135 - 0.1521 x137 >= 0
 e34: b138 + b139 + b140 + b141 + b142 + b143 + b144 + b145 + b146 <= 2
 e35: b147 + b148 + b149 + b150 + b151 + b152 + b153 + b154 + b155 <= 2
 e36: b156 + b157 + b158 + b159 + b160 + b161 + b162 + b163 + b164 <= 2
 e37: b165 + b166 + b167 + b168 + b169 + b170 + b171 + b172 + b173 <= 2
 e38: b174 + b175 + b176 + b177 + b178 + b179 + b180 + b181 + b182 <= 2
 e39: b183 + b184 + b185 + b186 + b187 + b188 + b189 + b190 + b191 <= 2
 e40: b192 + b193 + b194 + b195 + b196 + b197 + b198 + b199 + b200 <= 2
 e41: b201 + b202 + b203 + b204 + b205 + b206 + b207 + b208 + b209 <= 2
 e42: b138 + b140 <= 1
 e43: b138 + b141 <= 1
 e44: b138 + b142 <= 1
 e45: b138 + b145 <= 1
 e46: b138 + b146 <= 1
 e47: b139 + b140 <= 1
 e48: b139 + b141 <= 1
 e49: b139 + b142 <= 1
 e50: b139 + b145 <= 1
 e51: b139 + b146 <= 1
 e52: b140 + b142 <= 1
 e53: b140 + b143 <= 1
 e54: b140 + b144 <= 1
 e55: b140 + b146 <= 1
 e56: b141 + b142 <= 1
 e57: b141 + b143 <= 1
 e58: b141 + b144 <= 1
 e59: b141 + b146 <= 1
 e60: b142 + b143 <= 1
 e61: b142 + b144 <= 1
 e62: b142 + b145 <= 1
 e63: b142 + b146 <= 1
 e64: b143 + b145 <= 1
 e65: b143 + b146 <= 1
 e66: b144 + b145 <= 1
 e67: b144 + b146 <= 1
 e68: b145 + b146 <= 1
 e69: b147 + b149 <= 1
 e70: b147 + b150 <= 1
 e71: b147 + b151 <= 1
 e72: b147 + b154 <= 1
 e73: b147 + b155 <= 1
 e74: b148 + b149 <= 1
 e75: b148 + b150 <= 1
 e76: b148 + b151 <= 1
 e77: b148 + b154 <= 1
 e78: b148 + b155 <= 1
 e79: b149 + b151 <= 1
 e80: b149 + b152 <= 1
 e81: b149 + b153 <= 1
 e82: b149 + b155 <= 1
 e83: b150 + b151 <= 1
 e84: b150 + b152 <= 1
 e85: b150 + b153 <= 1
 e86: b150 + b155 <= 1
 e87: b151 + b152 <= 1
 e88: b151 + b153 <= 1
 e89: b151 + b154 <= 1
 e90: b151 + b155 <= 1
 e91: b152 + b154 <= 1
 e92: b152 + b155 <= 1
 e93: b153 + b154 <= 1
 e94: b153 + b155 <= 1
 e95: b154 + b155 <= 1
 e96: b156 + b158 <= 1
 e97: b156 + b159 <= 1
 e98: b156 + b160 <= 1
 e99: b156 + b163 <= 1
 e100: b156 + b164 <= 1
 e101: b157 + b158 <= 1
 e102: b157 + b159 <= 1
 e103: b157 + b160 <= 1
 e104: b157 + b163 <= 1
 e105: b157 + b164 <= 1
 e106: b158 + b160 <= 1
 e107: b158 + b161 <= 1
 e108: b158 + b162 <= 1
 e109: b158 + b164 <= 1
 e110: b159 + b160 <= 1
 e111: b159 + b161 <= 1
 e112: b159 + b162 <= 1
 e113: b159 + b164 <= 1
 e114: b160 + b161 <= 1
 e115: b160 + b162 <= 1
 e116: b160 + b163 <= 1
 e117: b160 + b164 <= 1
 e118: b161 + b163 <= 1
 e119: b161 + b164 <= 1
 e120: b162 + b163 <= 1
 e121: b162 + b164 <= 1
 e122: b163 + b164 <= 1
 e123: b165 + b167 <= 1
 e124: b165 + b168 <= 1
 e125: b165 + b169 <= 1
 e126: b165 + b172 <= 1
 e127: b165 + b173 <= 1
 e128: b166 + b167 <= 1
 e129: b166 + b168 <= 1
 e130: b166 + b169 <= 1
 e131: b166 + b172 <= 1
 e132: b166 + b173 <= 1
 e133: b167 + b169 <= 1
 e134: b167 + b170 <= 1
 e135: b167 + b171 <= 1
 e136: b167 + b173 <= 1
 e137: b168 + b169 <= 1
 e138: b168 + b170 <= 1
 e139: b168 + b171 <= 1
 e140: b168 + b173 <= 1
 e141: b169 + b170 <= 1
 e142: b169 + b171 <= 1
 e143: b169 + b172 <= 1
 e144: b169 + b173 <= 1
 e145: b170 + b172 <= 1
 e146: b170 + b173 <= 1
 e147: b171 + b172 <= 1
 e148: b171 + b173 <= 1
 e149: b172 + b173 <= 1
 e150: b174 + b176 <= 1
 e151: b174 + b177 <= 1
 e152: b174 + b178 <= 1
 e153: b174 + b181 <= 1
 e154: b174 + b182 <= 1
 e155: b175 + b176 <= 1
 e156: b175 + b177 <= 1
 e157: b175 + b178 <= 1
 e158: b175 + b181 <= 1
 e159: b175 + b182 <= 1
 e160: b176 + b178 <= 1
 e161: b176 + b179 <= 1
 e162: b176 + b180 <= 1
 e163: b176 + b182 <= 1
 e164: b177 + b178 <= 1
 e165: b177 + b179 <= 1
 e166: b177 + b180 <= 1
 e167: b177 + b182 <= 1
 e168: b178 + b179 <= 1
 e169: b178 + b180 <= 1
 e170: b178 + b181 <= 1
 e171: b178 + b182 <= 1
 e172: b179 + b181 <= 1
 e173: b179 + b182 <= 1
 e174: b180 + b181 <= 1
 e175: b180 + b182 <= 1
 e176: b181 + b182 <= 1
 e177: b183 + b185 <= 1
 e178: b183 + b186 <= 1
 e179: b183 + b187 <= 1
 e180: b183 + b190 <= 1
 e181: b183 + b191 <= 1
 e182: b184 + b185 <= 1
 e183: b184 + b186 <= 1
 e184: b184 + b187 <= 1
 e185: b184 + b190 <= 1
 e186: b184 + b191 <= 1
 e187: b185 + b187 <= 1
 e188: b185 + b188 <= 1
 e189: b185 + b189 <= 1
 e190: b185 + b191 <= 1
 e191: b186 + b187 <= 1
 e192: b186 + b188 <= 1
 e193: b186 + b189 <= 1
 e194: b186 + b191 <= 1
 e195: b187 + b188 <= 1
 e196: b187 + b189 <= 1
 e197: b187 + b190 <= 1
 e198: b187 + b191 <= 1
 e199: b188 + b190 <= 1
 e200: b188 + b191 <= 1
 e201: b189 + b190 <= 1
 e202: b189 + b191 <= 1
 e203: b190 + b191 <= 1
 e204: b192 + b194 <= 1
 e205: b192 + b195 <= 1
 e206: b192 + b196 <= 1
 e207: b192 + b199 <= 1
 e208: b192 + b200 <= 1
 e209: b193 + b194 <= 1
 e210: b193 + b195 <= 1
 e211: b193 + b196 <= 1
 e212: b193 + b199 <= 1
 e213: b193 + b200 <= 1
 e214: b194 + b196 <= 1
 e215: b194 + b197 <= 1
 e216: b194 + b198 <= 1
 e217: b194 + b200 <= 1
 e218: b195 + b196 <= 1
 e219: b195 + b197 <= 1
 e220: b195 + b198 <= 1
 e221: b195 + b200 <= 1
 e222: b196 + b197 <= 1
 e223: b196 + b198 <= 1
 e224: b196 + b199 <= 1
 e225: b196 + b200 <= 1
 e226: b197 + b199 <= 1
 e227: b197 + b200 <= 1
 e228: b198 + b199 <= 1
 e229: b198 + b200 <= 1
 e230: b199 + b200 <= 1
 e231: b201 + b203 <= 1
 e232: b201 + b204 <= 1
 e233: b201 + b205 <= 1
 e234: b201 + b208 <= 1
 e235: b201 + b209 <= 1
 e236: b202 + b203 <= 1
 e237: b202 + b204 <= 1
 e238: b202 + b205 <= 1
 e239: b202 + b208 <= 1
 e240: b202 + b209 <= 1
 e241: b203 + b205 <= 1
 e242: b203 + b206 <= 1
 e243: b203 + b207 <= 1
 e244: b203 + b209 <= 1
 e245: b204 + b205 <= 1
 e246: b204 + b206 <= 1
 e247: b204 + b207 <= 1
 e248: b204 + b209 <= 1
 e249: b205 + b206 <= 1
 e250: b205 + b207 <= 1
 e251: b205 + b208 <= 1
 e252: b205 + b209 <= 1
 e253: b206 + b208 <= 1
 e254: b206 + b209 <= 1
 e255: b207 + b208 <= 1
 e256: b207 + b209 <= 1
 e257: b208 + b209 <= 1
 e258: b140 + b141 + b142 + b145 + b146 <= 0
 e259: b149 + b150 + b151 + b154 + b155 <= 0
 e260: b158 + b159 + b160 + b163 + b164 <= 0
 e261: b165 + b166 + b169 + b170 + b171 + b173 <= 0
 e262: b174 + b175 + b178 + b179 + b180 + b182 <= 0
 e263: b183 + b184 + b187 + b188 + b189 + b191 <= 0
 e264: b192 + b193 + b194 + b195 + b197 + b198 + b199 <= 0
 e265: b201 + b202 + b203 + b204 + b206 + b207 + b208 <= 0
 e266: - 200 x26 - 330 i34 - 260 i35 - 480 i36 - 440 i37 - 711 i38 - 350 i39 - 300 i40 - 450 i41 - 450 i42 
  + 1000 b210 + 1100 b211 + 1200 b212 + 1300 b213 + 1400 b214 + 1500 b215 <= 0
 e267: - 200 x26 - 330 i34 - 260 i35 - 480 i36 - 440 i37 - 711 i38 - 350 i39 - 300 i40 - 450 i41 - 450 i42 
  + 1000 b216 + 1100 b217 + 1200 b218 + 1300 b219 + 1400 b220 + 1500 b221 <= 0
 e268: - 200 x26 - 330 i34 - 260 i35 - 480 i36 - 440 i37 - 711 i38 - 350 i39 - 300 i40 - 450 i41 - 450 i42 
  + 1000 b222 + 1100 b223 + 1200 b224 + 1300 b225 + 1400 b226 + 1500 b227 <= 0
 e269: - 200 x27 - 330 i43 - 260 i44 - 480 i45 - 440 i46 - 711 i47 - 350 i48 - 300 i49 - 450 i50 - 450 i51 
  + 1000 b228 + 1100 b229 + 1200 b230 + 1300 b231 + 1400 b232 + 1500 b233 <= 0
 e270: - 200 x27 - 330 i43 - 260 i44 - 480 i45 - 440 i46 - 711 i47 - 350 i48 - 300 i49 - 450 i50 - 450 i51 
  + 1000 b234 + 1100 b235 + 1200 b236 + 1300 b237 + 1400 b238 + 1500 b239 <= 0
 e271: - 200 x27 - 330 i43 - 260 i44 - 480 i45 - 440 i46 - 711 i47 - 350 i48 - 300 i49 - 450 i50 - 450 i51 
  + 1000 b240 + 1100 b241 + 1200 b242 + 1300 b243 + 1400 b244 + 1500 b245 <= 0
 e272: - 200 x28 - 330 i52 - 260 i53 - 480 i54 - 440 i55 - 711 i56 - 350 i57 - 300 i58 - 450 i59 - 450 i60 
  + 1000 b246 + 1100 b247 + 1200 b248 + 1300 b249 + 1400 b250 + 1500 b251 <= 0
 e273: - 200 x28 - 330 i52 - 260 i53 - 480 i54 - 440 i55 - 711 i56 - 350 i57 - 300 i58 - 450 i59 - 450 i60 
  + 1000 b252 + 1100 b253 + 1200 b254 + 1300 b255 + 1400 b256 + 1500 b257 <= 0
 e274: - 200 x28 - 330 i52 - 260 i53 - 480 i54 - 440 i55 - 711 i56 - 350 i57 - 300 i58 - 450 i59 - 450 i60 
  + 1000 b258 + 1100 b259 + 1200 b260 + 1300 b261 + 1400 b262 + 1500 b263 <= 0
 e275: - 200 x29 - 330 i61 - 260 i62 - 480 i63 - 440 i64 - 711 i65 - 350 i66 - 300 i67 - 450 i68 - 450 i69 
  + 1000 b264 + 1100 b265 + 1200 b266 + 1300 b267 + 1400 b268 + 1500 b269 <= 0
 e276: - 200 x29 - 330 i61 - 260 i62 - 480 i63 - 440 i64 - 711 i65 - 350 i66 - 300 i67 - 450 i68 - 450 i69 
  + 1000 b270 + 1100 b271 + 1200 b272 + 1300 b273 + 1400 b274 + 1500 b275 <= 0
 e277: - 200 x29 - 330 i61 - 260 i62 - 480 i63 - 440 i64 - 711 i65 - 350 i66 - 300 i67 - 450 i68 - 450 i69 
  + 1000 b276 + 1100 b277 + 1200 b278 + 1300 b279 + 1400 b280 + 1500 b281 <= 0
 e278: - 200 x30 - 330 i70 - 260 i71 - 480 i72 - 440 i73 - 711 i74 - 350 i75 - 300 i76 - 450 i77 - 450 i78 
  + 1000 b282 + 1100 b283 + 1200 b284 + 1300 b285 + 1400 b286 + 1500 b287 <= 0
 e279: - 200 x30 - 330 i70 - 260 i71 - 480 i72 - 440 i73 - 711 i74 - 350 i75 - 300 i76 - 450 i77 - 450 i78 
  + 1000 b288 + 1100 b289 + 1200 b290 + 1300 b291 + 1400 b292 + 1500 b293 <= 0
 e280: - 200 x30 - 330 i70 - 260 i71 - 480 i72 - 440 i73 - 711 i74 - 350 i75 - 300 i76 - 450 i77 - 450 i78 
  + 1000 b294 + 1100 b295 + 1200 b296 + 1300 b297 + 1400 b298 + 1500 b299 <= 0
 e281: - 200 x31 - 330 i79 - 260 i80 - 480 i81 - 440 i82 - 711 i83 - 350 i84 - 300 i85 - 450 i86 - 450 i87 
  + 1000 b300 + 1100 b301 + 1200 b302 + 1300 b303 + 1400 b304 + 1500 b305 <= 0
 e282: - 200 x31 - 330 i79 - 260 i80 - 480 i81 - 440 i82 - 711 i83 - 350 i84 - 300 i85 - 450 i86 - 450 i87 
  + 1000 b306 + 1100 b307 + 1200 b308 + 1300 b309 + 1400 b310 + 1500 b311 <= 0
 e283: - 200 x31 - 330 i79 - 260 i80 - 480 i81 - 440 i82 - 711 i83 - 350 i84 - 300 i85 - 450 i86 - 450 i87 
  + 1000 b312 + 1100 b313 + 1200 b314 + 1300 b315 + 1400 b316 + 1500 b317 <= 0
 e284: - 200 x32 - 330 i88 - 260 i89 - 480 i90 - 440 i91 - 711 i92 - 350 i93 - 300 i94 - 450 i95 - 450 i96 
  + 1000 b318 + 1100 b319 + 1200 b320 + 1300 b321 + 1400 b322 + 1500 b323 <= 0
 e285: - 200 x32 - 330 i88 - 260 i89 - 480 i90 - 440 i91 - 711 i92 - 350 i93 - 300 i94 - 450 i95 - 450 i96 
  + 1000 b324 + 1100 b325 + 1200 b326 + 1300 b327 + 1400 b328 + 1500 b329 <= 0
 e286: - 200 x32 - 330 i88 - 260 i89 - 480 i90 - 440 i91 - 711 i92 - 350 i93 - 300 i94 - 450 i95 - 450 i96 
  + 1000 b330 + 1100 b331 + 1200 b332 + 1300 b333 + 1400 b334 + 1500 b335 <= 0
 e287: - 200 x33 - 330 i97 - 260 i98 - 480 i99 - 440 i100 - 711 i101 - 350 i102 - 300 i103 - 450 i104 
  - 450 i105 + 1000 b336 + 1100 b337 + 1200 b338 + 1300 b339 + 1400 b340 + 1500 b341 <= 0
 e288: - 200 x33 - 330 i97 - 260 i98 - 480 i99 - 440 i100 - 711 i101 - 350 i102 - 300 i103 - 450 i104 
  - 450 i105 + 1000 b342 + 1100 b343 + 1200 b344 + 1300 b345 + 1400 b346 + 1500 b347 <= 0
 e289: - 200 x33 - 330 i97 - 260 i98 - 480 i99 - 440 i100 - 711 i101 - 350 i102 - 300 i103 - 450 i104 
  - 450 i105 + 1000 b348 + 1100 b349 + 1200 b350 + 1300 b351 + 1400 b352 + 1500 b353 <= 0
 e290: - 20 x26 - 330 i34 - 260 i35 - 480 i36 - 440 i37 - 711 i38 - 350 i39 - 300 i40 - 450 i41 - 450 i42 
  + 1000 b210 + 1100 b211 + 1200 b212 + 1300 b213 + 1400 b214 + 1500 b215 >= 0
 e291: - 20 x26 - 330 i34 - 260 i35 - 480 i36 - 440 i37 - 711 i38 - 350 i39 - 300 i40 - 450 i41 - 450 i42 
  + 1000 b216 + 1100 b217 + 1200 b218 + 1300 b219 + 1400 b220 + 1500 b221 >= 0
 e292: - 20 x26 - 330 i34 - 260 i35 - 480 i36 - 440 i37 - 711 i38 - 350 i39 - 300 i40 - 450 i41 - 450 i42 
  + 1000 b222 + 1100 b223 + 1200 b224 + 1300 b225 + 1400 b226 + 1500 b227 >= 0
 e293: - 20 x27 - 330 i43 - 260 i44 - 480 i45 - 440 i46 - 711 i47 - 350 i48 - 300 i49 - 450 i50 - 450 i51 
  + 1000 b228 + 1100 b229 + 1200 b230 + 1300 b231 + 1400 b232 + 1500 b233 >= 0
 e294: - 20 x27 - 330 i43 - 260 i44 - 480 i45 - 440 i46 - 711 i47 - 350 i48 - 300 i49 - 450 i50 - 450 i51 
  + 1000 b234 + 1100 b235 + 1200 b236 + 1300 b237 + 1400 b238 + 1500 b239 >= 0
 e295: - 20 x27 - 330 i43 - 260 i44 - 480 i45 - 440 i46 - 711 i47 - 350 i48 - 300 i49 - 450 i50 - 450 i51 
  + 1000 b240 + 1100 b241 + 1200 b242 + 1300 b243 + 1400 b244 + 1500 b245 >= 0
 e296: - 20 x28 - 330 i52 - 260 i53 - 480 i54 - 440 i55 - 711 i56 - 350 i57 - 300 i58 - 450 i59 - 450 i60 
  + 1000 b246 + 1100 b247 + 1200 b248 + 1300 b249 + 1400 b250 + 1500 b251 >= 0
 e297: - 20 x28 - 330 i52 - 260 i53 - 480 i54 - 440 i55 - 711 i56 - 350 i57 - 300 i58 - 450 i59 - 450 i60 
  + 1000 b252 + 1100 b253 + 1200 b254 + 1300 b255 + 1400 b256 + 1500 b257 >= 0
 e298: - 20 x28 - 330 i52 - 260 i53 - 480 i54 - 440 i55 - 711 i56 - 350 i57 - 300 i58 - 450 i59 - 450 i60 
  + 1000 b258 + 1100 b259 + 1200 b260 + 1300 b261 + 1400 b262 + 1500 b263 >= 0
 e299: - 20 x29 - 330 i61 - 260 i62 - 480 i63 - 440 i64 - 711 i65 - 350 i66 - 300 i67 - 450 i68 - 450 i69 
  + 1000 b264 + 1100 b265 + 1200 b266 + 1300 b267 + 1400 b268 + 1500 b269 >= 0
 e300: - 20 x29 - 330 i61 - 260 i62 - 480 i63 - 440 i64 - 711 i65 - 350 i66 - 300 i67 - 450 i68 - 450 i69 
  + 1000 b270 + 1100 b271 + 1200 b272 + 1300 b273 + 1400 b274 + 1500 b275 >= 0
 e301: - 20 x29 - 330 i61 - 260 i62 - 480 i63 - 440 i64 - 711 i65 - 350 i66 - 300 i67 - 450 i68 - 450 i69 
  + 1000 b276 + 1100 b277 + 1200 b278 + 1300 b279 + 1400 b280 + 1500 b281 >= 0
 e302: - 20 x30 - 330 i70 - 260 i71 - 480 i72 - 440 i73 - 711 i74 - 350 i75 - 300 i76 - 450 i77 - 450 i78 
  + 1000 b282 + 1100 b283 + 1200 b284 + 1300 b285 + 1400 b286 + 1500 b287 >= 0
 e303: - 20 x30 - 330 i70 - 260 i71 - 480 i72 - 440 i73 - 711 i74 - 350 i75 - 300 i76 - 450 i77 - 450 i78 
  + 1000 b288 + 1100 b289 + 1200 b290 + 1300 b291 + 1400 b292 + 1500 b293 >= 0
 e304: - 20 x30 - 330 i70 - 260 i71 - 480 i72 - 440 i73 - 711 i74 - 350 i75 - 300 i76 - 450 i77 - 450 i78 
  + 1000 b294 + 1100 b295 + 1200 b296 + 1300 b297 + 1400 b298 + 1500 b299 >= 0
 e305: - 20 x31 - 330 i79 - 260 i80 - 480 i81 - 440 i82 - 711 i83 - 350 i84 - 300 i85 - 450 i86 - 450 i87 
  + 1000 b300 + 1100 b301 + 1200 b302 + 1300 b303 + 1400 b304 + 1500 b305 >= 0
 e306: - 20 x31 - 330 i79 - 260 i80 - 480 i81 - 440 i82 - 711 i83 - 350 i84 - 300 i85 - 450 i86 - 450 i87 
  + 1000 b306 + 1100 b307 + 1200 b308 + 1300 b309 + 1400 b310 + 1500 b311 >= 0
 e307: - 20 x31 - 330 i79 - 260 i80 - 480 i81 - 440 i82 - 711 i83 - 350 i84 - 300 i85 - 450 i86 - 450 i87 
  + 1000 b312 + 1100 b313 + 1200 b314 + 1300 b315 + 1400 b316 + 1500 b317 >= 0
 e308: - 20 x32 - 330 i88 - 260 i89 - 480 i90 - 440 i91 - 711 i92 - 350 i93 - 300 i94 - 450 i95 - 450 i96 
  + 1000 b318 + 1100 b319 + 1200 b320 + 1300 b321 + 1400 b322 + 1500 b323 >= 0
 e309: - 20 x32 - 330 i88 - 260 i89 - 480 i90 - 440 i91 - 711 i92 - 350 i93 - 300 i94 - 450 i95 - 450 i96 
  + 1000 b324 + 1100 b325 + 1200 b326 + 1300 b327 + 1400 b328 + 1500 b329 >= 0
 e310: - 20 x32 - 330 i88 - 260 i89 - 480 i90 - 440 i91 - 711 i92 - 350 i93 - 300 i94 - 450 i95 - 450 i96 
  + 1000 b330 + 1100 b331 + 1200 b332 + 1300 b333 + 1400 b334 + 1500 b335 >= 0
 e311: - 20 x33 - 330 i97 - 260 i98 - 480 i99 - 440 i100 - 711 i101 - 350 i102 - 300 i103 - 450 i104 
  - 450 i105 + 1000 b336 + 1100 b337 + 1200 b338 + 1300 b339 + 1400 b340 + 1500 b341 >= 0
 e312: - 20 x33 - 330 i97 - 260 i98 - 480 i99 - 440 i100 - 711 i101 - 350 i102 - 300 i103 - 450 i104 
  - 450 i105 + 1000 b342 + 1100 b343 + 1200 b344 + 1300 b345 + 1400 b346 + 1500 b347 >= 0
 e313: - 20 x33 - 330 i97 - 260 i98 - 480 i99 - 440 i100 - 711 i101 - 350 i102 - 300 i103 - 450 i104 
  - 450 i105 + 1000 b348 + 1100 b349 + 1200 b350 + 1300 b351 + 1400 b352 + 1500 b353 >= 0
 e314: - b138 - b139 - b140 - b141 - b142 - b143 - b144 - b145 - b146 + b210 + b211 + b212 + b213 + b214 
  + b215 <= 0
 e315: - b138 - b139 - b140 - b141 - b142 - b143 - b144 - b145 - b146 + b216 + b217 + b218 + b219 + b220 
  + b221 <= 0
 e316: - b138 - b139 - b140 - b141 - b142 - b143 - b144 - b145 - b146 + b222 + b223 + b224 + b225 + b226 
  + b227 <= 0
 e317: - b147 - b148 - b149 - b150 - b151 - b152 - b153 - b154 - b155 + b228 + b229 + b230 + b231 + b232 
  + b233 <= 0
 e318: - b147 - b148 - b149 - b150 - b151 - b152 - b153 - b154 - b155 + b234 + b235 + b236 + b237 + b238 
  + b239 <= 0
 e319: - b147 - b148 - b149 - b150 - b151 - b152 - b153 - b154 - b155 + b240 + b241 + b242 + b243 + b244 
  + b245 <= 0
 e320: - b156 - b157 - b158 - b159 - b160 - b161 - b162 - b163 - b164 + b246 + b247 + b248 + b249 + b250 
  + b251 <= 0
 e321: - b156 - b157 - b158 - b159 - b160 - b161 - b162 - b163 - b164 + b252 + b253 + b254 + b255 + b256 
  + b257 <= 0
 e322: - b156 - b157 - b158 - b159 - b160 - b161 - b162 - b163 - b164 + b258 + b259 + b260 + b261 + b262 
  + b263 <= 0
 e323: - b165 - b166 - b167 - b168 - b169 - b170 - b171 - b172 - b173 + b264 + b265 + b266 + b267 + b268 
  + b269 <= 0
 e324: - b165 - b166 - b167 - b168 - b169 - b170 - b171 - b172 - b173 + b270 + b271 + b272 + b273 + b274 
  + b275 <= 0
 e325: - b165 - b166 - b167 - b168 - b169 - b170 - b171 - b172 - b173 + b276 + b277 + b278 + b279 + b280 
  + b281 <= 0
 e326: - b174 - b175 - b176 - b177 - b178 - b179 - b180 - b181 - b182 + b282 + b283 + b284 + b285 + b286 
  + b287 <= 0
 e327: - b174 - b175 - b176 - b177 - b178 - b179 - b180 - b181 - b182 + b288 + b289 + b290 + b291 + b292 
  + b293 <= 0
 e328: - b174 - b175 - b176 - b177 - b178 - b179 - b180 - b181 - b182 + b294 + b295 + b296 + b297 + b298 
  + b299 <= 0
 e329: - b183 - b184 - b185 - b186 - b187 - b188 - b189 - b190 - b191 + b300 + b301 + b302 + b303 + b304 
  + b305 <= 0
 e330: - b183 - b184 - b185 - b186 - b187 - b188 - b189 - b190 - b191 + b306 + b307 + b308 + b309 + b310 
  + b311 <= 0
 e331: - b183 - b184 - b185 - b186 - b187 - b188 - b189 - b190 - b191 + b312 + b313 + b314 + b315 + b316 
  + b317 <= 0
 e332: - b192 - b193 - b194 - b195 - b196 - b197 - b198 - b199 - b200 + b318 + b319 + b320 + b321 + b322 
  + b323 <= 0
 e333: - b192 - b193 - b194 - b195 - b196 - b197 - b198 - b199 - b200 + b324 + b325 + b326 + b327 + b328 
  + b329 <= 0
 e334: - b192 - b193 - b194 - b195 - b196 - b197 - b198 - b199 - b200 + b330 + b331 + b332 + b333 + b334 
  + b335 <= 0
 e335: - b201 - b202 - b203 - b204 - b205 - b206 - b207 - b208 - b209 + b336 + b337 + b338 + b339 + b340 
  + b341 <= 0
 e336: - b201 - b202 - b203 - b204 - b205 - b206 - b207 - b208 - b209 + b342 + b343 + b344 + b345 + b346 
  + b347 <= 0
 e337: - b201 - b202 - b203 - b204 - b205 - b206 - b207 - b208 - b209 + b348 + b349 + b350 + b351 + b352 
  + b353 <= 0
 e338: b210 + b211 + b212 + b213 + b214 + b215 <= 1
 e339: b216 + b217 + b218 + b219 + b220 + b221 <= 1
 e340: b222 + b223 + b224 + b225 + b226 + b227 <= 1
 e341: b228 + b229 + b230 + b231 + b232 + b233 <= 1
 e342: b234 + b235 + b236 + b237 + b238 + b239 <= 1
 e343: b240 + b241 + b242 + b243 + b244 + b245 <= 1
 e344: b246 + b247 + b248 + b249 + b250 + b251 <= 1
 e345: b252 + b253 + b254 + b255 + b256 + b257 <= 1
 e346: b258 + b259 + b260 + b261 + b262 + b263 <= 1
 e347: b264 + b265 + b266 + b267 + b268 + b269 <= 1
 e348: b270 + b271 + b272 + b273 + b274 + b275 <= 1
 e349: b276 + b277 + b278 + b279 + b280 + b281 <= 1
 e350: b282 + b283 + b284 + b285 + b286 + b287 <= 1
 e351: b288 + b289 + b290 + b291 + b292 + b293 <= 1
 e352: b294 + b295 + b296 + b297 + b298 + b299 <= 1
 e353: b300 + b301 + b302 + b303 + b304 + b305 <= 1
 e354: b306 + b307 + b308 + b309 + b310 + b311 <= 1
 e355: b312 + b313 + b314 + b315 + b316 + b317 <= 1
 e356: b318 + b319 + b320 + b321 + b322 + b323 <= 1
 e357: b324 + b325 + b326 + b327 + b328 + b329 <= 1
 e358: b330 + b331 + b332 + b333 + b334 + b335 <= 1
 e359: b336 + b337 + b338 + b339 + b340 + b341 <= 1
 e360: b342 + b343 + b344 + b345 + b346 + b347 <= 1
 e361: b348 + b349 + b350 + b351 + b352 + b353 <= 1
 e362: - x26 + b210 + b211 + b212 + b213 + b214 + b215 >= 0
 e363: - x26 + b210 + b211 + b212 + b213 + b214 + b215 >= 0
 e364: - x26 + b210 + b211 + b212 + b213 + b214 + b215 >= 0
 e365: - x26 + b210 + b211 + b212 + b213 + b214 + b215 >= 0
 e366: - x26 + b210 + b211 + b212 + b213 + b214 + b215 >= 0
 e367: - x26 + b210 + b211 + b212 + b213 + b214 + b215 >= 0
 e368: - x26 + b210 + b211 + b212 + b213 + b214 + b215 >= 0
 e369: - x26 + b210 + b211 + b212 + b213 + b214 + b215 >= 0
 e370: - x26 + b210 + b211 + b212 + b213 + b214 + b215 >= 0
 e371: - x26 + b216 + b217 + b218 + b219 + b220 + b221 >= 0
 e372: - x26 + b216 + b217 + b218 + b219 + b220 + b221 >= 0
 e373: - x26 + b216 + b217 + b218 + b219 + b220 + b221 >= 0
 e374: - x26 + b216 + b217 + b218 + b219 + b220 + b221 >= 0
 e375: - x26 + b216 + b217 + b218 + b219 + b220 + b221 >= 0
 e376: - x26 + b216 + b217 + b218 + b219 + b220 + b221 >= 0
 e377: - x26 + b216 + b217 + b218 + b219 + b220 + b221 >= 0
 e378: - x26 + b216 + b217 + b218 + b219 + b220 + b221 >= 0
 e379: - x26 + b216 + b217 + b218 + b219 + b220 + b221 >= 0
 e380: - x26 + b222 + b223 + b224 + b225 + b226 + b227 >= 0
 e381: - x26 + b222 + b223 + b224 + b225 + b226 + b227 >= 0
 e382: - x26 + b222 + b223 + b224 + b225 + b226 + b227 >= 0
 e383: - x26 + b222 + b223 + b224 + b225 + b226 + b227 >= 0
 e384: - x26 + b222 + b223 + b224 + b225 + b226 + b227 >= 0
 e385: - x26 + b222 + b223 + b224 + b225 + b226 + b227 >= 0
 e386: - x26 + b222 + b223 + b224 + b225 + b226 + b227 >= 0
 e387: - x26 + b222 + b223 + b224 + b225 + b226 + b227 >= 0
 e388: - x26 + b222 + b223 + b224 + b225 + b226 + b227 >= 0
 e389: - x27 + b228 + b229 + b230 + b231 + b232 + b233 >= 0
 e390: - x27 + b228 + b229 + b230 + b231 + b232 + b233 >= 0
 e391: - x27 + b228 + b229 + b230 + b231 + b232 + b233 >= 0
 e392: - x27 + b228 + b229 + b230 + b231 + b232 + b233 >= 0
 e393: - x27 + b228 + b229 + b230 + b231 + b232 + b233 >= 0
 e394: - x27 + b228 + b229 + b230 + b231 + b232 + b233 >= 0
 e395: - x27 + b228 + b229 + b230 + b231 + b232 + b233 >= 0
 e396: - x27 + b228 + b229 + b230 + b231 + b232 + b233 >= 0
 e397: - x27 + b228 + b229 + b230 + b231 + b232 + b233 >= 0
 e398: - x27 + b234 + b235 + b236 + b237 + b238 + b239 >= 0
 e399: - x27 + b234 + b235 + b236 + b237 + b238 + b239 >= 0
 e400: - x27 + b234 + b235 + b236 + b237 + b238 + b239 >= 0
 e401: - x27 + b234 + b235 + b236 + b237 + b238 + b239 >= 0
 e402: - x27 + b234 + b235 + b236 + b237 + b238 + b239 >= 0
 e403: - x27 + b234 + b235 + b236 + b237 + b238 + b239 >= 0
 e404: - x27 + b234 + b235 + b236 + b237 + b238 + b239 >= 0
 e405: - x27 + b234 + b235 + b236 + b237 + b238 + b239 >= 0
 e406: - x27 + b234 + b235 + b236 + b237 + b238 + b239 >= 0
 e407: - x27 + b240 + b241 + b242 + b243 + b244 + b245 >= 0
 e408: - x27 + b240 + b241 + b242 + b243 + b244 + b245 >= 0
 e409: - x27 + b240 + b241 + b242 + b243 + b244 + b245 >= 0
 e410: - x27 + b240 + b241 + b242 + b243 + b244 + b245 >= 0
 e411: - x27 + b240 + b241 + b242 + b243 + b244 + b245 >= 0
 e412: - x27 + b240 + b241 + b242 + b243 + b244 + b245 >= 0
 e413: - x27 + b240 + b241 + b242 + b243 + b244 + b245 >= 0
 e414: - x27 + b240 + b241 + b242 + b243 + b244 + b245 >= 0
 e415: - x27 + b240 + b241 + b242 + b243 + b244 + b245 >= 0
 e416: - x28 + b246 + b247 + b248 + b249 + b250 + b251 >= 0
 e417: - x28 + b246 + b247 + b248 + b249 + b250 + b251 >= 0
 e418: - x28 + b246 + b247 + b248 + b249 + b250 + b251 >= 0
 e419: - x28 + b246 + b247 + b248 + b249 + b250 + b251 >= 0
 e420: - x28 + b246 + b247 + b248 + b249 + b250 + b251 >= 0
 e421: - x28 + b246 + b247 + b248 + b249 + b250 + b251 >= 0
 e422: - x28 + b246 + b247 + b248 + b249 + b250 + b251 >= 0
 e423: - x28 + b246 + b247 + b248 + b249 + b250 + b251 >= 0
 e424: - x28 + b246 + b247 + b248 + b249 + b250 + b251 >= 0
 e425: - x28 + b252 + b253 + b254 + b255 + b256 + b257 >= 0
 e426: - x28 + b252 + b253 + b254 + b255 + b256 + b257 >= 0
 e427: - x28 + b252 + b253 + b254 + b255 + b256 + b257 >= 0
 e428: - x28 + b252 + b253 + b254 + b255 + b256 + b257 >= 0
 e429: - x28 + b252 + b253 + b254 + b255 + b256 + b257 >= 0
 e430: - x28 + b252 + b253 + b254 + b255 + b256 + b257 >= 0
 e431: - x28 + b252 + b253 + b254 + b255 + b256 + b257 >= 0
 e432: - x28 + b252 + b253 + b254 + b255 + b256 + b257 >= 0
 e433: - x28 + b252 + b253 + b254 + b255 + b256 + b257 >= 0
 e434: - x28 + b258 + b259 + b260 + b261 + b262 + b263 >= 0
 e435: - x28 + b258 + b259 + b260 + b261 + b262 + b263 >= 0
 e436: - x28 + b258 + b259 + b260 + b261 + b262 + b263 >= 0
 e437: - x28 + b258 + b259 + b260 + b261 + b262 + b263 >= 0
 e438: - x28 + b258 + b259 + b260 + b261 + b262 + b263 >= 0
 e439: - x28 + b258 + b259 + b260 + b261 + b262 + b263 >= 0
 e440: - x28 + b258 + b259 + b260 + b261 + b262 + b263 >= 0
 e441: - x28 + b258 + b259 + b260 + b261 + b262 + b263 >= 0
 e442: - x28 + b258 + b259 + b260 + b261 + b262 + b263 >= 0
 e443: - x29 + b264 + b265 + b266 + b267 + b268 + b269 >= 0
 e444: - x29 + b264 + b265 + b266 + b267 + b268 + b269 >= 0
 e445: - x29 + b264 + b265 + b266 + b267 + b268 + b269 >= 0
 e446: - x29 + b264 + b265 + b266 + b267 + b268 + b269 >= 0
 e447: - x29 + b264 + b265 + b266 + b267 + b268 + b269 >= 0
 e448: - x29 + b264 + b265 + b266 + b267 + b268 + b269 >= 0
 e449: - x29 + b264 + b265 + b266 + b267 + b268 + b269 >= 0
 e450: - x29 + b264 + b265 + b266 + b267 + b268 + b269 >= 0
 e451: - x29 + b264 + b265 + b266 + b267 + b268 + b269 >= 0
 e452: - x29 + b270 + b271 + b272 + b273 + b274 + b275 >= 0
 e453: - x29 + b270 + b271 + b272 + b273 + b274 + b275 >= 0
 e454: - x29 + b270 + b271 + b272 + b273 + b274 + b275 >= 0
 e455: - x29 + b270 + b271 + b272 + b273 + b274 + b275 >= 0
 e456: - x29 + b270 + b271 + b272 + b273 + b274 + b275 >= 0
 e457: - x29 + b270 + b271 + b272 + b273 + b274 + b275 >= 0
 e458: - x29 + b270 + b271 + b272 + b273 + b274 + b275 >= 0
 e459: - x29 + b270 + b271 + b272 + b273 + b274 + b275 >= 0
 e460: - x29 + b270 + b271 + b272 + b273 + b274 + b275 >= 0
 e461: - x29 + b276 + b277 + b278 + b279 + b280 + b281 >= 0
 e462: - x29 + b276 + b277 + b278 + b279 + b280 + b281 >= 0
 e463: - x29 + b276 + b277 + b278 + b279 + b280 + b281 >= 0
 e464: - x29 + b276 + b277 + b278 + b279 + b280 + b281 >= 0
 e465: - x29 + b276 + b277 + b278 + b279 + b280 + b281 >= 0
 e466: - x29 + b276 + b277 + b278 + b279 + b280 + b281 >= 0
 e467: - x29 + b276 + b277 + b278 + b279 + b280 + b281 >= 0
 e468: - x29 + b276 + b277 + b278 + b279 + b280 + b281 >= 0
 e469: - x29 + b276 + b277 + b278 + b279 + b280 + b281 >= 0
 e470: - x30 + b282 + b283 + b284 + b285 + b286 + b287 >= 0
 e471: - x30 + b282 + b283 + b284 + b285 + b286 + b287 >= 0
 e472: - x30 + b282 + b283 + b284 + b285 + b286 + b287 >= 0
 e473: - x30 + b282 + b283 + b284 + b285 + b286 + b287 >= 0
 e474: - x30 + b282 + b283 + b284 + b285 + b286 + b287 >= 0
 e475: - x30 + b282 + b283 + b284 + b285 + b286 + b287 >= 0
 e476: - x30 + b282 + b283 + b284 + b285 + b286 + b287 >= 0
 e477: - x30 + b282 + b283 + b284 + b285 + b286 + b287 >= 0
 e478: - x30 + b282 + b283 + b284 + b285 + b286 + b287 >= 0
 e479: - x30 + b288 + b289 + b290 + b291 + b292 + b293 >= 0
 e480: - x30 + b288 + b289 + b290 + b291 + b292 + b293 >= 0
 e481: - x30 + b288 + b289 + b290 + b291 + b292 + b293 >= 0
 e482: - x30 + b288 + b289 + b290 + b291 + b292 + b293 >= 0
 e483: - x30 + b288 + b289 + b290 + b291 + b292 + b293 >= 0
 e484: - x30 + b288 + b289 + b290 + b291 + b292 + b293 >= 0
 e485: - x30 + b288 + b289 + b290 + b291 + b292 + b293 >= 0
 e486: - x30 + b288 + b289 + b290 + b291 + b292 + b293 >= 0
 e487: - x30 + b288 + b289 + b290 + b291 + b292 + b293 >= 0
 e488: - x30 + b294 + b295 + b296 + b297 + b298 + b299 >= 0
 e489: - x30 + b294 + b295 + b296 + b297 + b298 + b299 >= 0
 e490: - x30 + b294 + b295 + b296 + b297 + b298 + b299 >= 0
 e491: - x30 + b294 + b295 + b296 + b297 + b298 + b299 >= 0
 e492: - x30 + b294 + b295 + b296 + b297 + b298 + b299 >= 0
 e493: - x30 + b294 + b295 + b296 + b297 + b298 + b299 >= 0
 e494: - x30 + b294 + b295 + b296 + b297 + b298 + b299 >= 0
 e495: - x30 + b294 + b295 + b296 + b297 + b298 + b299 >= 0
 e496: - x30 + b294 + b295 + b296 + b297 + b298 + b299 >= 0
 e497: - x31 + b300 + b301 + b302 + b303 + b304 + b305 >= 0
 e498: - x31 + b300 + b301 + b302 + b303 + b304 + b305 >= 0
 e499: - x31 + b300 + b301 + b302 + b303 + b304 + b305 >= 0
 e500: - x31 + b300 + b301 + b302 + b303 + b304 + b305 >= 0
 e501: - x31 + b300 + b301 + b302 + b303 + b304 + b305 >= 0
 e502: - x31 + b300 + b301 + b302 + b303 + b304 + b305 >= 0
 e503: - x31 + b300 + b301 + b302 + b303 + b304 + b305 >= 0
 e504: - x31 + b300 + b301 + b302 + b303 + b304 + b305 >= 0
 e505: - x31 + b300 + b301 + b302 + b303 + b304 + b305 >= 0
 e506: - x31 + b306 + b307 + b308 + b309 + b310 + b311 >= 0
 e507: - x31 + b306 + b307 + b308 + b309 + b310 + b311 >= 0
 e508: - x31 + b306 + b307 + b308 + b309 + b310 + b311 >= 0
 e509: - x31 + b306 + b307 + b308 + b309 + b310 + b311 >= 0
 e510: - x31 + b306 + b307 + b308 + b309 + b310 + b311 >= 0
 e511: - x31 + b306 + b307 + b308 + b309 + b310 + b311 >= 0
 e512: - x31 + b306 + b307 + b308 + b309 + b310 + b311 >= 0
 e513: - x31 + b306 + b307 + b308 + b309 + b310 + b311 >= 0
 e514: - x31 + b306 + b307 + b308 + b309 + b310 + b311 >= 0
 e515: - x31 + b312 + b313 + b314 + b315 + b316 + b317 >= 0
 e516: - x31 + b312 + b313 + b314 + b315 + b316 + b317 >= 0
 e517: - x31 + b312 + b313 + b314 + b315 + b316 + b317 >= 0
 e518: - x31 + b312 + b313 + b314 + b315 + b316 + b317 >= 0
 e519: - x31 + b312 + b313 + b314 + b315 + b316 + b317 >= 0
 e520: - x31 + b312 + b313 + b314 + b315 + b316 + b317 >= 0
 e521: - x31 + b312 + b313 + b314 + b315 + b316 + b317 >= 0
 e522: - x31 + b312 + b313 + b314 + b315 + b316 + b317 >= 0
 e523: - x31 + b312 + b313 + b314 + b315 + b316 + b317 >= 0
 e524: - x32 + b318 + b319 + b320 + b321 + b322 + b323 >= 0
 e525: - x32 + b318 + b319 + b320 + b321 + b322 + b323 >= 0
 e526: - x32 + b318 + b319 + b320 + b321 + b322 + b323 >= 0
 e527: - x32 + b318 + b319 + b320 + b321 + b322 + b323 >= 0
 e528: - x32 + b318 + b319 + b320 + b321 + b322 + b323 >= 0
 e529: - x32 + b318 + b319 + b320 + b321 + b322 + b323 >= 0
 e530: - x32 + b318 + b319 + b320 + b321 + b322 + b323 >= 0
 e531: - x32 + b318 + b319 + b320 + b321 + b322 + b323 >= 0
 e532: - x32 + b318 + b319 + b320 + b321 + b322 + b323 >= 0
 e533: - x32 + b324 + b325 + b326 + b327 + b328 + b329 >= 0
 e534: - x32 + b324 + b325 + b326 + b327 + b328 + b329 >= 0
 e535: - x32 + b324 + b325 + b326 + b327 + b328 + b329 >= 0
 e536: - x32 + b324 + b325 + b326 + b327 + b328 + b329 >= 0
 e537: - x32 + b324 + b325 + b326 + b327 + b328 + b329 >= 0
 e538: - x32 + b324 + b325 + b326 + b327 + b328 + b329 >= 0
 e539: - x32 + b324 + b325 + b326 + b327 + b328 + b329 >= 0
 e540: - x32 + b324 + b325 + b326 + b327 + b328 + b329 >= 0
 e541: - x32 + b324 + b325 + b326 + b327 + b328 + b329 >= 0
 e542: - x32 + b330 + b331 + b332 + b333 + b334 + b335 >= 0
 e543: - x32 + b330 + b331 + b332 + b333 + b334 + b335 >= 0
 e544: - x32 + b330 + b331 + b332 + b333 + b334 + b335 >= 0
 e545: - x32 + b330 + b331 + b332 + b333 + b334 + b335 >= 0
 e546: - x32 + b330 + b331 + b332 + b333 + b334 + b335 >= 0
 e547: - x32 + b330 + b331 + b332 + b333 + b334 + b335 >= 0
 e548: - x32 + b330 + b331 + b332 + b333 + b334 + b335 >= 0
 e549: - x32 + b330 + b331 + b332 + b333 + b334 + b335 >= 0
 e550: - x32 + b330 + b331 + b332 + b333 + b334 + b335 >= 0
 e551: - x33 + b336 + b337 + b338 + b339 + b340 + b341 >= 0
 e552: - x33 + b336 + b337 + b338 + b339 + b340 + b341 >= 0
 e553: - x33 + b336 + b337 + b338 + b339 + b340 + b341 >= 0
 e554: - x33 + b336 + b337 + b338 + b339 + b340 + b341 >= 0
 e555: - x33 + b336 + b337 + b338 + b339 + b340 + b341 >= 0
 e556: - x33 + b336 + b337 + b338 + b339 + b340 + b341 >= 0
 e557: - x33 + b336 + b337 + b338 + b339 + b340 + b341 >= 0
 e558: - x33 + b336 + b337 + b338 + b339 + b340 + b341 >= 0
 e559: - x33 + b336 + b337 + b338 + b339 + b340 + b341 >= 0
 e560: - x33 + b342 + b343 + b344 + b345 + b346 + b347 >= 0
 e561: - x33 + b342 + b343 + b344 + b345 + b346 + b347 >= 0
 e562: - x33 + b342 + b343 + b344 + b345 + b346 + b347 >= 0
 e563: - x33 + b342 + b343 + b344 + b345 + b346 + b347 >= 0
 e564: - x33 + b342 + b343 + b344 + b345 + b346 + b347 >= 0
 e565: - x33 + b342 + b343 + b344 + b345 + b346 + b347 >= 0
 e566: - x33 + b342 + b343 + b344 + b345 + b346 + b347 >= 0
 e567: - x33 + b342 + b343 + b344 + b345 + b346 + b347 >= 0
 e568: - x33 + b342 + b343 + b344 + b345 + b346 + b347 >= 0
 e569: - x33 + b348 + b349 + b350 + b351 + b352 + b353 >= 0
 e570: - x33 + b348 + b349 + b350 + b351 + b352 + b353 >= 0
 e571: - x33 + b348 + b349 + b350 + b351 + b352 + b353 >= 0
 e572: - x33 + b348 + b349 + b350 + b351 + b352 + b353 >= 0
 e573: - x33 + b348 + b349 + b350 + b351 + b352 + b353 >= 0
 e574: - x33 + b348 + b349 + b350 + b351 + b352 + b353 >= 0
 e575: - x33 + b348 + b349 + b350 + b351 + b352 + b353 >= 0
 e576: - x33 + b348 + b349 + b350 + b351 + b352 + b353 >= 0
 e577: - x33 + b348 + b349 + b350 + b351 + b352 + b353 >= 0
 e578: - 500 x26 + x354 >= 0
 e579: - 500 x27 + x355 >= 0
 e580: - 500 x28 + x356 >= 0
 e581: - 500 x29 + x357 >= 0
 e582: - 500 x30 + x358 >= 0
 e583: - 500 x31 + x359 >= 0
 e584: - 500 x32 + x360 >= 0
 e585: - 500 x33 + x361 >= 0
 e586: - 2000 x26 + x354 <= 0
 e587: - 2000 x27 + x355 <= 0
 e588: - 2000 x28 + x356 <= 0
 e589: - 2000 x29 + x357 <= 0
 e590: - 2000 x30 + x358 <= 0
 e591: - 2000 x31 + x359 <= 0
 e592: - 2000 x32 + x360 <= 0
 e593: - 2000 x33 + x361 <= 0
 e594: - x26 + b138 + b139 + b140 + b141 + b142 + b143 + b144 + b145 + b146 >= 0
 e595: - x27 + b147 + b148 + b149 + b150 + b151 + b152 + b153 + b154 + b155 >= 0
 e596: - x28 + b156 + b157 + b158 + b159 + b160 + b161 + b162 + b163 + b164 >= 0
 e597: - x29 + b165 + b166 + b167 + b168 + b169 + b170 + b171 + b172 + b173 >= 0
 e598: - x30 + b174 + b175 + b176 + b177 + b178 + b179 + b180 + b181 + b182 >= 0
 e599: - x31 + b183 + b184 + b185 + b186 + b187 + b188 + b189 + b190 + b191 >= 0
 e600: - x32 + b192 + b193 + b194 + b195 + b196 + b197 + b198 + b199 + b200 >= 0
 e601: - x33 + b201 + b202 + b203 + b204 + b205 + b206 + b207 + b208 + b209 >= 0
 e602: x26 - b138 >= 0
 e603: x27 - b147 >= 0
 e604: x28 - b156 >= 0
 e605: x29 - b165 >= 0
 e606: x30 - b174 >= 0
 e607: x31 - b183 >= 0
 e608: x32 - b192 >= 0
 e609: x33 - b201 >= 0
 e610: x26 - b139 >= 0
 e611: x27 - b148 >= 0
 e612: x28 - b157 >= 0
 e613: x29 - b166 >= 0
 e614: x30 - b175 >= 0
 e615: x31 - b184 >= 0
 e616: x32 - b193 >= 0
 e617: x33 - b202 >= 0
 e618: x26 - b140 >= 0
 e619: x27 - b149 >= 0
 e620: x28 - b158 >= 0
 e621: x29 - b167 >= 0
 e622: x30 - b176 >= 0
 e623: x31 - b185 >= 0
 e624: x32 - b194 >= 0
 e625: x33 - b203 >= 0
 e626: x26 - b141 >= 0
 e627: x27 - b150 >= 0
 e628: x28 - b159 >= 0
 e629: x29 - b168 >= 0
 e630: x30 - b177 >= 0
 e631: x31 - b186 >= 0
 e632: x32 - b195 >= 0
 e633: x33 - b204 >= 0
 e634: x26 - b142 >= 0
 e635: x27 - b151 >= 0
 e636: x28 - b160 >= 0
 e637: x29 - b169 >= 0
 e638: x30 - b178 >= 0
 e639: x31 - b187 >= 0
 e640: x32 - b196 >= 0
 e641: x33 - b205 >= 0
 e642: x26 - b143 >= 0
 e643: x27 - b152 >= 0
 e644: x28 - b161 >= 0
 e645: x29 - b170 >= 0
 e646: x30 - b179 >= 0
 e647: x31 - b188 >= 0
 e648: x32 - b197 >= 0
 e649: x33 - b206 >= 0
 e650: x26 - b144 >= 0
 e651: x27 - b153 >= 0
 e652: x28 - b162 >= 0
 e653: x29 - b171 >= 0
 e654: x30 - b180 >= 0
 e655: x31 - b189 >= 0
 e656: x32 - b198 >= 0
 e657: x33 - b207 >= 0
 e658: x26 - b145 >= 0
 e659: x27 - b154 >= 0
 e660: x28 - b163 >= 0
 e661: x29 - b172 >= 0
 e662: x30 - b181 >= 0
 e663: x31 - b190 >= 0
 e664: x32 - b199 >= 0
 e665: x33 - b208 >= 0
 e666: x26 - b146 >= 0
 e667: x27 - b155 >= 0
 e668: x28 - b164 >= 0
 e669: x29 - b173 >= 0
 e670: x30 - b182 >= 0
 e671: x31 - b191 >= 0
 e672: x32 - b200 >= 0
 e673: x33 - b209 >= 0
 e674: b138 + b147 + b156 + b165 + b174 + b183 + b192 + b201 >= 1
 e675: b139 + b148 + b157 + b166 + b175 + b184 + b193 + b202 >= 1
 e676: b140 + b149 + b158 + b167 + b176 + b185 + b194 + b203 >= 1
 e677: b141 + b150 + b159 + b168 + b177 + b186 + b195 + b204 >= 1
 e678: b142 + b151 + b160 + b169 + b178 + b187 + b196 + b205 >= 1
 e679: b143 + b152 + b161 + b170 + b179 + b188 + b197 + b206 >= 1
 e680: b144 + b153 + b162 + b171 + b180 + b189 + b198 + b207 >= 1
 e681: b145 + b154 + b163 + b172 + b181 + b190 + b199 + b208 >= 1
 e682: b146 + b155 + b164 + b173 + b182 + b191 + b200 + b209 >= 1
 e683: - i34 + b138 <= 0
 e684: - i43 + b147 <= 0
 e685: - i52 + b156 <= 0
 e686: - i61 + b165 <= 0
 e687: - i70 + b174 <= 0
 e688: - i79 + b183 <= 0
 e689: - i88 + b192 <= 0
 e690: - i97 + b201 <= 0
 e691: - i35 + b139 <= 0
 e692: - i44 + b148 <= 0
 e693: - i53 + b157 <= 0
 e694: - i62 + b166 <= 0
 e695: - i71 + b175 <= 0
 e696: - i80 + b184 <= 0
 e697: - i89 + b193 <= 0
 e698: - i98 + b202 <= 0
 e699: - i36 + b140 <= 0
 e700: - i45 + b149 <= 0
 e701: - i54 + b158 <= 0
 e702: - i63 + b167 <= 0
 e703: - i72 + b176 <= 0
 e704: - i81 + b185 <= 0
 e705: - i90 + b194 <= 0
 e706: - i99 + b203 <= 0
 e707: - i37 + b141 <= 0
 e708: - i46 + b150 <= 0
 e709: - i55 + b159 <= 0
 e710: - i64 + b168 <= 0
 e711: - i73 + b177 <= 0
 e712: - i82 + b186 <= 0
 e713: - i91 + b195 <= 0
 e714: - i100 + b204 <= 0
 e715: - i38 + b142 <= 0
 e716: - i47 + b151 <= 0
 e717: - i56 + b160 <= 0
 e718: - i65 + b169 <= 0
 e719: - i74 + b178 <= 0
 e720: - i83 + b187 <= 0
 e721: - i92 + b196 <= 0
 e722: - i101 + b205 <= 0
 e723: - i39 + b143 <= 0
 e724: - i48 + b152 <= 0
 e725: - i57 + b161 <= 0
 e726: - i66 + b170 <= 0
 e727: - i75 + b179 <= 0
 e728: - i84 + b188 <= 0
 e729: - i93 + b197 <= 0
 e730: - i102 + b206 <= 0
 e731: - i40 + b144 <= 0
 e732: - i49 + b153 <= 0
 e733: - i58 + b162 <= 0
 e734: - i67 + b171 <= 0
 e735: - i76 + b180 <= 0
 e736: - i85 + b189 <= 0
 e737: - i94 + b198 <= 0
 e738: - i103 + b207 <= 0
 e739: - i41 + b145 <= 0
 e740: - i50 + b154 <= 0
 e741: - i59 + b163 <= 0
 e742: - i68 + b172 <= 0
 e743: - i77 + b181 <= 0
 e744: - i86 + b190 <= 0
 e745: - i95 + b199 <= 0
 e746: - i104 + b208 <= 0
 e747: - i42 + b146 <= 0
 e748: - i51 + b155 <= 0
 e749: - i60 + b164 <= 0
 e750: - i69 + b173 <= 0
 e751: - i78 + b182 <= 0
 e752: - i87 + b191 <= 0
 e753: - i96 + b200 <= 0
 e754: - i105 + b209 <= 0
 e755: i34 - 4 b138 <= 0
 e756: i43 - 4 b147 <= 0
 e757: i52 - 4 b156 <= 0
 e758: i61 - 4 b165 <= 0
 e759: i70 - 4 b174 <= 0
 e760: i79 - 4 b183 <= 0
 e761: i88 - 4 b192 <= 0
 e762: i97 - 4 b201 <= 0
 e763: i35 - 4 b139 <= 0
 e764: i44 - 4 b148 <= 0
 e765: i53 - 4 b157 <= 0
 e766: i62 - 4 b166 <= 0
 e767: i71 - 4 b175 <= 0
 e768: i80 - 4 b184 <= 0
 e769: i89 - 4 b193 <= 0
 e770: i98 - 4 b202 <= 0
 e771: i36 - 4 b140 <= 0
 e772: i45 - 4 b149 <= 0
 e773: i54 - 4 b158 <= 0
 e774: i63 - 4 b167 <= 0
 e775: i72 - 4 b176 <= 0
 e776: i81 - 4 b185 <= 0
 e777: i90 - 4 b194 <= 0
 e778: i99 - 4 b203 <= 0
 e779: i37 - 4 b141 <= 0
 e780: i46 - 4 b150 <= 0
 e781: i55 - 4 b159 <= 0
 e782: i64 - 4 b168 <= 0
 e783: i73 - 4 b177 <= 0
 e784: i82 - 4 b186 <= 0
 e785: i91 - 4 b195 <= 0
 e786: i100 - 4 b204 <= 0
 e787: i38 - 4 b142 <= 0
 e788: i47 - 4 b151 <= 0
 e789: i56 - 4 b160 <= 0
 e790: i65 - 4 b169 <= 0
 e791: i74 - 4 b178 <= 0
 e792: i83 - 4 b187 <= 0
 e793: i92 - 4 b196 <= 0
 e794: i101 - 4 b205 <= 0
 e795: i39 - 4 b143 <= 0
 e796: i48 - 4 b152 <= 0
 e797: i57 - 4 b161 <= 0
 e798: i66 - 4 b170 <= 0
 e799: i75 - 4 b179 <= 0
 e800: i84 - 4 b188 <= 0
 e801: i93 - 4 b197 <= 0
 e802: i102 - 4 b206 <= 0
 e803: i40 - 4 b144 <= 0
 e804: i49 - 4 b153 <= 0
 e805: i58 - 4 b162 <= 0
 e806: i67 - 4 b171 <= 0
 e807: i76 - 4 b180 <= 0
 e808: i85 - 4 b189 <= 0
 e809: i94 - 4 b198 <= 0
 e810: i103 - 4 b207 <= 0
 e811: i41 - 4 b145 <= 0
 e812: i50 - 4 b154 <= 0
 e813: i59 - 4 b163 <= 0
 e814: i68 - 4 b172 <= 0
 e815: i77 - 4 b181 <= 0
 e816: i86 - 4 b190 <= 0
 e817: i95 - 4 b199 <= 0
 e818: i104 - 4 b208 <= 0
 e819: i42 - 4 b146 <= 0
 e820: i51 - 4 b155 <= 0
 e821: i60 - 4 b164 <= 0
 e822: i69 - 4 b173 <= 0
 e823: i78 - 4 b182 <= 0
 e824: i87 - 4 b191 <= 0
 e825: i96 - 4 b200 <= 0
 e826: i105 - 4 b209 <= 0
 e827: - x106 + [ b210 * x354 + 1.1 b211 * x354 + 1.2 b212 * x354 + 1.3 b213 * x354 + 1.4 b214 * x354 
  + 1.5 b215 * x354 ] = 0
 e828: - x108 + [ b216 * x354 + 1.1 b217 * x354 + 1.2 b218 * x354 + 1.3 b219 * x354 + 1.4 b220 * x354 
  + 1.5 b221 * x354 ] = 0
 e829: - x109 + [ b222 * x354 + 1.1 b223 * x354 + 1.2 b224 * x354 + 1.3 b225 * x354 + 1.4 b226 * x354 
  + 1.5 b227 * x354 ] = 0
 e830: - x110 + [ b228 * x355 + 1.1 b229 * x355 + 1.2 b230 * x355 + 1.3 b231 * x355 + 1.4 b232 * x355 
  + 1.5 b233 * x355 ] = 0
 e831: - x112 + [ b234 * x355 + 1.1 b235 * x355 + 1.2 b236 * x355 + 1.3 b237 * x355 + 1.4 b238 * x355 
  + 1.5 b239 * x355 ] = 0
 e832: - x113 + [ b240 * x355 + 1.1 b241 * x355 + 1.2 b242 * x355 + 1.3 b243 * x355 + 1.4 b244 * x355 
  + 1.5 b245 * x355 ] = 0
 e833: - x114 + [ b246 * x356 + 1.1 b247 * x356 + 1.2 b248 * x356 + 1.3 b249 * x356 + 1.4 b250 * x356 
  + 1.5 b251 * x356 ] = 0
 e834: - x116 + [ b252 * x356 + 1.1 b253 * x356 + 1.2 b254 * x356 + 1.3 b255 * x356 + 1.4 b256 * x356 
  + 1.5 b257 * x356 ] = 0
 e835: - x117 + [ b258 * x356 + 1.1 b259 * x356 + 1.2 b260 * x356 + 1.3 b261 * x356 + 1.4 b262 * x356 
  + 1.5 b263 * x356 ] = 0
 e836: - x118 + [ b264 * x357 + 1.1 b265 * x357 + 1.2 b266 * x357 + 1.3 b267 * x357 + 1.4 b268 * x357 
  + 1.5 b269 * x357 ] = 0
 e837: - x120 + [ b270 * x357 + 1.1 b271 * x357 + 1.2 b272 * x357 + 1.3 b273 * x357 + 1.4 b274 * x357 
  + 1.5 b275 * x357 ] = 0
 e838: - x121 + [ b276 * x357 + 1.1 b277 * x357 + 1.2 b278 * x357 + 1.3 b279 * x357 + 1.4 b280 * x357 
  + 1.5 b281 * x357 ] = 0
 e839: - x122 + [ b282 * x358 + 1.1 b283 * x358 + 1.2 b284 * x358 + 1.3 b285 * x358 + 1.4 b286 * x358 
  + 1.5 b287 * x358 ] = 0
 e840: - x124 + [ b288 * x358 + 1.1 b289 * x358 + 1.2 b290 * x358 + 1.3 b291 * x358 + 1.4 b292 * x358 
  + 1.5 b293 * x358 ] = 0
 e841: - x125 + [ b294 * x358 + 1.1 b295 * x358 + 1.2 b296 * x358 + 1.3 b297 * x358 + 1.4 b298 * x358 
  + 1.5 b299 * x358 ] = 0
 e842: - x126 + [ b300 * x359 + 1.1 b301 * x359 + 1.2 b302 * x359 + 1.3 b303 * x359 + 1.4 b304 * x359 
  + 1.5 b305 * x359 ] = 0
 e843: - x128 + [ b306 * x359 + 1.1 b307 * x359 + 1.2 b308 * x359 + 1.3 b309 * x359 + 1.4 b310 * x359 
  + 1.5 b311 * x359 ] = 0
 e844: - x129 + [ b312 * x359 + 1.1 b313 * x359 + 1.2 b314 * x359 + 1.3 b315 * x359 + 1.4 b316 * x359 
  + 1.5 b317 * x359 ] = 0
 e845: - x130 + [ b318 * x360 + 1.1 b319 * x360 + 1.2 b320 * x360 + 1.3 b321 * x360 + 1.4 b322 * x360 
  + 1.5 b323 * x360 ] = 0
 e846: - x132 + [ b324 * x360 + 1.1 b325 * x360 + 1.2 b326 * x360 + 1.3 b327 * x360 + 1.4 b328 * x360 
  + 1.5 b329 * x360 ] = 0
 e847: - x133 + [ b330 * x360 + 1.1 b331 * x360 + 1.2 b332 * x360 + 1.3 b333 * x360 + 1.4 b334 * x360 
  + 1.5 b335 * x360 ] = 0
 e848: - x134 + [ b336 * x361 + 1.1 b337 * x361 + 1.2 b338 * x361 + 1.3 b339 * x361 + 1.4 b340 * x361 
  + 1.5 b341 * x361 ] = 0
 e849: - x136 + [ b342 * x361 + 1.1 b343 * x361 + 1.2 b344 * x361 + 1.3 b345 * x361 + 1.4 b346 * x361 
  + 1.5 b347 * x361 ] = 0
 e850: - x137 + [ b348 * x361 + 1.1 b349 * x361 + 1.2 b350 * x361 + 1.3 b351 * x361 + 1.4 b352 * x361 
  + 1.5 b353 * x361 ] = 0
 e851: - x107 + [ 0.33 i34 * x354 + 0.26 i35 * x354 + 0.48 i36 * x354 + 0.44 i37 * x354 + 0.711 i38 * x354 
  + 0.35 i39 * x354 + 0.3 i40 * x354 + 0.45 i41 * x354 + 0.45 i42 * x354 ] = 0
 e852: - x111 + [ 0.33 i43 * x355 + 0.26 i44 * x355 + 0.48 i45 * x355 + 0.44 i46 * x355 + 0.711 i47 * x355 
  + 0.35 i48 * x355 + 0.3 i49 * x355 + 0.45 i50 * x355 + 0.45 i51 * x355 ] = 0
 e853: - x115 + [ 0.33 i52 * x356 + 0.26 i53 * x356 + 0.48 i54 * x356 + 0.44 i55 * x356 + 0.711 i56 * x356 
  + 0.35 i57 * x356 + 0.3 i58 * x356 + 0.45 i59 * x356 + 0.45 i60 * x356 ] = 0
 e854: - x119 + [ 0.33 i61 * x357 + 0.26 i62 * x357 + 0.48 i63 * x357 + 0.44 i64 * x357 + 0.711 i65 * x357 
  + 0.35 i66 * x357 + 0.3 i67 * x357 + 0.45 i68 * x357 + 0.45 i69 * x357 ] = 0
 e855: - x123 + [ 0.33 i70 * x358 + 0.26 i71 * x358 + 0.48 i72 * x358 + 0.44 i73 * x358 + 0.711 i74 * x358 
  + 0.35 i75 * x358 + 0.3 i76 * x358 + 0.45 i77 * x358 + 0.45 i78 * x358 ] = 0
 e856: - x127 + [ 0.33 i79 * x359 + 0.26 i80 * x359 + 0.48 i81 * x359 + 0.44 i82 * x359 + 0.711 i83 * x359 
  + 0.35 i84 * x359 + 0.3 i85 * x359 + 0.45 i86 * x359 + 0.45 i87 * x359 ] = 0
 e857: - x131 + [ 0.33 i88 * x360 + 0.26 i89 * x360 + 0.48 i90 * x360 + 0.44 i91 * x360 + 0.711 i92 * x360 
  + 0.35 i93 * x360 + 0.3 i94 * x360 + 0.45 i95 * x360 + 0.45 i96 * x360 ] = 0
 e858: - x135 + [ 0.33 i97 * x361 + 0.26 i98 * x361 + 0.48 i99 * x361 + 0.44 i100 * x361 + 0.711 i101 * x361 
  + 0.35 i102 * x361 + 0.3 i103 * x361 + 0.45 i104 * x361 + 0.45 i105 * x361 ] = 0
 e859: [ b210 * x354 + 1.5 b216 * x354 + b222 * x354 + b228 * x355 + 1.5 b234 * x355 + b240 * x355 + b246 * x356 
  + 1.5 b252 * x356 + b258 * x356 + 1.5 b324 * x360 + 1.5 b342 * x361 ] <= 999999
 e860: [ b211 * x354 + 1.5 b217 * x354 + b223 * x354 + b229 * x355 + 1.5 b235 * x355 + b241 * x355 + b247 * x356 
  + 1.5 b253 * x356 + b259 * x356 + 1.5 b325 * x360 + 1.5 b343 * x361 ] <= 999999
 e861: [ b212 * x354 + 1.5 b218 * x354 + b224 * x354 + b230 * x355 + 1.5 b236 * x355 + b242 * x355 + b248 * x356 
  + 1.5 b254 * x356 + b260 * x356 + 1.5 b326 * x360 + 1.5 b344 * x361 ] <= 999999
 e862: [ b213 * x354 + 1.5 b219 * x354 + b225 * x354 + b231 * x355 + 1.5 b237 * x355 + b243 * x355 + b249 * x356 
  + 1.5 b255 * x356 + b261 * x356 + 1.5 b327 * x360 + 1.5 b345 * x361 ] <= 888888
 e863: [ b214 * x354 + 1.5 b220 * x354 + b226 * x354 + b232 * x355 + 1.5 b238 * x355 + b244 * x355 + b250 * x356 
  + 1.5 b256 * x356 + b262 * x356 + 1.5 b328 * x360 + 1.5 b346 * x361 ] <= 9999999
 e864: [ b215 * x354 + 1.5 b221 * x354 + b227 * x354 + b233 * x355 + 1.5 b239 * x355 + b245 * x355 + b251 * x356 
  + 1.5 b257 * x356 + b263 * x356 + 1.5 b329 * x360 + 1.5 b347 * x361 ] <= 999999
 e865: [ 1.5 b270 * x357 + b276 * x357 + 1.5 b288 * x358 + b294 * x358 + 1.5 b306 * x359 + b312 * x359 
  + b318 * x360 + b330 * x360 + b336 * x361 + b348 * x361 ] <= 72722
 e866: [ 1.5 b271 * x357 + b277 * x357 + 1.5 b289 * x358 + b295 * x358 + 1.5 b307 * x359 + b313 * x359 
  + b319 * x360 + b331 * x360 + b337 * x361 + b349 * x361 ] <= 32737
 e867: [ 1.5 b272 * x357 + b278 * x357 + 1.5 b290 * x358 + b296 * x358 + 1.5 b308 * x359 + b314 * x359 
  + b320 * x360 + b332 * x360 + b338 * x361 + b350 * x361 ] <= 999999
 e868: [ 1.5 b273 * x357 + b279 * x357 + 1.5 b291 * x358 + b297 * x358 + 1.5 b309 * x359 + b315 * x359 
  + b321 * x360 + b333 * x360 + b339 * x361 + b351 * x361 ] <= 999999
 e869: [ 1.5 b274 * x357 + b280 * x357 + 1.5 b292 * x358 + b298 * x358 + 1.5 b310 * x359 + b316 * x359 
  + b322 * x360 + b334 * x360 + b340 * x361 + b352 * x361 ] <= 122344
 e870: [ 1.5 b275 * x357 + b281 * x357 + 1.5 b293 * x358 + b299 * x358 + 1.5 b311 * x359 + b317 * x359 
  + b323 * x360 + b335 * x360 + b341 * x361 + b353 * x361 ] <= 147559
 e871: [ b264 * x357 + b282 * x358 + b300 * x359 ] <= 999999
 e872: [ b265 * x357 + b283 * x358 + b301 * x359 ] <= 999999
 e873: [ b266 * x357 + b284 * x358 + b302 * x359 ] <= 999999
 e874: [ b267 * x357 + b285 * x358 + b303 * x359 ] <= 999999
 e875: [ b268 * x357 + b286 * x358 + b304 * x359 ] <= 999999
 e876: [ b269 * x357 + b287 * x358 + b305 * x359 ] <= 999999
 e877: [ 0.5277044855 i34 * x354 + 0.5277044855 i43 * x355 + 0.5277044855 i52 * x356 + 0.5277044855 i61 * x357 
  + 0.5277044855 i70 * x358 + 0.5277044855 i79 * x359 + 0.5277044855 i88 * x360 + 0.5277044855 i97 * x361 
  ] >= 1000
 e878: [ 1.333333333 i35 * x354 + 1.333333333 i44 * x355 + 1.333333333 i53 * x356 + 1.333333333 i62 * x357 
  + 1.333333333 i71 * x358 + 1.333333333 i80 * x359 + 1.333333333 i89 * x360 + 1.333333333 i98 * x361 
  ] >= 1500
 e879: [ 0.8583690987 i36 * x354 + 0.8583690987 i45 * x355 + 0.8583690987 i54 * x356 + 0.8583690987 i63 * x357 
  + 0.8583690987 i72 * x358 + 0.8583690987 i81 * x359 + 0.8583690987 i90 * x360 + 0.8583690987 i99 * x361 
  ] >= 2000
 e880: [ 1.324503311 i37 * x354 + 1.324503311 i46 * x355 + 1.324503311 i55 * x356 + 1.324503311 i64 * x357 
  + 1.324503311 i73 * x358 + 1.324503311 i82 * x359 + 1.324503311 i91 * x360 + 1.324503311 i100 * x361 
  ] >= 2000
 e881: [ 0.5012531328 i38 * x354 + 0.5012531328 i47 * x355 + 0.5012531328 i56 * x356 + 0.5012531328 i65 * x357 
  + 0.5012531328 i74 * x358 + 0.5012531328 i83 * x359 + 0.5012531328 i92 * x360 + 0.5012531328 i101 * x361 
  ] >= 1500
 e882: [ 0.5555555556 i39 * x354 + 0.5555555556 i48 * x355 + 0.5555555556 i57 * x356 + 0.5555555556 i66 * x357 
  + 0.5555555556 i75 * x358 + 0.5555555556 i84 * x359 + 0.5555555556 i93 * x360 + 0.5555555556 i102 * x361 
  ] >= 1500
 e883: [ 1.176470588 i40 * x354 + 1.176470588 i49 * x355 + 1.176470588 i58 * x356 + 1.176470588 i67 * x357 
  + 1.176470588 i76 * x358 + 1.176470588 i85 * x359 + 1.176470588 i94 * x360 + 1.176470588 i103 * x361 
  ] >= 2500
 e884: [ 0.8333333333 i41 * x354 + 0.8333333333 i50 * x355 + 0.8333333333 i59 * x356 + 0.8333333333 i68 * x357 
  + 0.8333333333 i77 * x358 + 0.8333333333 i86 * x359 + 0.8333333333 i95 * x360 + 0.8333333333 i104 * x361 
  ] >= 3000
 e885: [ 1.25 i42 * x354 + 1.25 i51 * x355 + 1.25 i60 * x356 + 1.25 i69 * x357 + 1.25 i78 * x358 + 1.25 i87 * x359 
  + 1.25 i96 * x360 + 1.25 i105 * x361 ] >= 2000
 e886: [ 0.5277044855 i34 * x354 + 0.5277044855 i43 * x355 + 0.5277044855 i52 * x356 + 0.5277044855 i61 * x357 
  + 0.5277044855 i70 * x358 + 0.5277044855 i79 * x359 + 0.5277044855 i88 * x360 + 0.5277044855 i97 * x361 
  ] <= 1500
 e887: [ 1.333333333 i35 * x354 + 1.333333333 i44 * x355 + 1.333333333 i53 * x356 + 1.333333333 i62 * x357 
  + 1.333333333 i71 * x358 + 1.333333333 i80 * x359 + 1.333333333 i89 * x360 + 1.333333333 i98 * x361 
  ] <= 2250
 e888: [ 0.8583690987 i36 * x354 + 0.8583690987 i45 * x355 + 0.8583690987 i54 * x356 + 0.8583690987 i63 * x357 
  + 0.8583690987 i72 * x358 + 0.8583690987 i81 * x359 + 0.8583690987 i90 * x360 + 0.8583690987 i99 * x361 
  ] <= 3000
 e889: [ 1.324503311 i37 * x354 + 1.324503311 i46 * x355 + 1.324503311 i55 * x356 + 1.324503311 i64 * x357 
  + 1.324503311 i73 * x358 + 1.324503311 i82 * x359 + 1.324503311 i91 * x360 + 1.324503311 i100 * x361 
  ] <= 3000
 e890: [ 0.5012531328 i38 * x354 + 0.5012531328 i47 * x355 + 0.5012531328 i56 * x356 + 0.5012531328 i65 * x357 
  + 0.5012531328 i74 * x358 + 0.5012531328 i83 * x359 + 0.5012531328 i92 * x360 + 0.5012531328 i101 * x361 
  ] <= 2250
 e891: [ 0.5555555556 i39 * x354 + 0.5555555556 i48 * x355 + 0.5555555556 i57 * x356 + 0.5555555556 i66 * x357 
  + 0.5555555556 i75 * x358 + 0.5555555556 i84 * x359 + 0.5555555556 i93 * x360 + 0.5555555556 i102 * x361 
  ] <= 2250
 e892: [ 1.176470588 i40 * x354 + 1.176470588 i49 * x355 + 1.176470588 i58 * x356 + 1.176470588 i67 * x357 
  + 1.176470588 i76 * x358 + 1.176470588 i85 * x359 + 1.176470588 i94 * x360 + 1.176470588 i103 * x361 
  ] <= 3750
 e893: [ 0.8333333333 i41 * x354 + 0.8333333333 i50 * x355 + 0.8333333333 i59 * x356 + 0.8333333333 i68 * x357 
  + 0.8333333333 i77 * x358 + 0.8333333333 i86 * x359 + 0.8333333333 i95 * x360 + 0.8333333333 i104 * x361 
  ] <= 4500
 e894: [ 1.25 i42 * x354 + 1.25 i51 * x355 + 1.25 i60 * x356 + 1.25 i69 * x357 + 1.25 i78 * x358 + 1.25 i87 * x359 
  + 1.25 i96 * x360 + 1.25 i105 * x361 ] <= 3000

Bounds
 x26 <= 1
 x27 <= 1
 x28 <= 1
 x29 <= 1
 x30 <= 1
 x31 <= 1
 x32 <= 1
 x33 <= 1
 i34 <= 4
 i35 <= 4
 i36 <= 4
 i37 <= 4
 i38 <= 4
 i39 <= 4
 i40 <= 4
 i41 <= 4
 i42 <= 4
 i43 <= 4
 i44 <= 4
 i45 <= 4
 i46 <= 4
 i47 <= 4
 i48 <= 4
 i49 <= 4
 i50 <= 4
 i51 <= 4
 i52 <= 4
 i53 <= 4
 i54 <= 4
 i55 <= 4
 i56 <= 4
 i57 <= 4
 i58 <= 4
 i59 <= 4
 i60 <= 4
 i61 <= 4
 i62 <= 4
 i63 <= 4
 i64 <= 4
 i65 <= 4
 i66 <= 4
 i67 <= 4
 i68 <= 4
 i69 <= 4
 i70 <= 4
 i71 <= 4
 i72 <= 4
 i73 <= 4
 i74 <= 4
 i75 <= 4
 i76 <= 4
 i77 <= 4
 i78 <= 4
 i79 <= 4
 i80 <= 4
 i81 <= 4
 i82 <= 4
 i83 <= 4
 i84 <= 4
 i85 <= 4
 i86 <= 4
 i87 <= 4
 i88 <= 4
 i89 <= 4
 i90 <= 4
 i91 <= 4
 i92 <= 4
 i93 <= 4
 i94 <= 4
 i95 <= 4
 i96 <= 4
 i97 <= 4
 i98 <= 4
 i99 <= 4
 i100 <= 4
 i101 <= 4
 i102 <= 4
 i103 <= 4
 i104 <= 4
 i105 <= 4

Binary
 b138 b139 b140 b141 b142 b143 b144 b145 b146 b147 b148 b149 b150 b151 b152 b153 b154 b155 b156
 b157 b158 b159 b160 b161 b162 b163 b164 b165 b166 b167 b168 b169 b170 b171 b172 b173 b174 b175
 b176 b177 b178 b179 b180 b181 b182 b183 b184 b185 b186 b187 b188 b189 b190 b191 b192 b193 b194
 b195 b196 b197 b198 b199 b200 b201 b202 b203 b204 b205 b206 b207 b208 b209 b210 b211 b212 b213
 b214 b215 b216 b217 b218 b219 b220 b221 b222 b223 b224 b225 b226 b227 b228 b229 b230 b231 b232
 b233 b234 b235 b236 b237 b238 b239 b240 b241 b242 b243 b244 b245 b246 b247 b248 b249 b250 b251
 b252 b253 b254 b255 b256 b257 b258 b259 b260 b261 b262 b263 b264 b265 b266 b267 b268 b269 b270
 b271 b272 b273 b274 b275 b276 b277 b278 b279 b280 b281 b282 b283 b284 b285 b286 b287 b288 b289
 b290 b291 b292 b293 b294 b295 b296 b297 b298 b299 b300 b301 b302 b303 b304 b305 b306 b307 b308
 b309 b310 b311 b312 b313 b314 b315 b316 b317 b318 b319 b320 b321 b322 b323 b324 b325 b326 b327
 b328 b329 b330 b331 b332 b333 b334 b335 b336 b337 b338 b339 b340 b341 b342 b343 b344 b345 b346
 b347 b348 b349 b350 b351 b352 b353

General
 i34 i35 i36 i37 i38 i39 i40 i41 i42 i43 i44 i45 i46 i47 i48 i49 i50 i51 i52 i53 i54 i55 i56
 i57 i58 i59 i60 i61 i62 i63 i64 i65 i66 i67 i68 i69 i70 i71 i72 i73 i74 i75 i76 i77 i78 i79
 i80 i81 i82 i83 i84 i85 i86 i87 i88 i89 i90 i91 i92 i93 i94 i95 i96 i97 i98 i99 i100 i101 i102
 i103 i104 i105

End
