\ Equation counts
\     Total        E        G        L        N        X        C        B
\      1154        0        0     1154        0        0        0        0
\ 
\ Variable counts
\                  x        b        i      s1s      s2s       sc       si
\     Total     cont   binary  integer     sos1     sos2    scont     sint
\       176      176        0        0        0        0        0        0
\ 
\ Nonzero counts
\     Total    const       NL      DLL
\      3822        1     3821        0
\ 
Maximize
 obj: 0 x2 + 0 x3 + 0 x4 + 0 x5 + 0 x6 + 0 x7 + 0 x8 + 0 x9 + 0 x10 + 0 x11 + 0 x12 + 0 x13 + 0 x14 + 0 x15 
  + 0 x16 + 0 x17 + 0 x18 + 0 x19 + 0 x20 + 0 x21 + 0 x22 + 0 x23 + 0 x24 + 0 x25 + 0 x26 + 0 x27 + 0 x28 
  + 0 x29 + 0 x30 + 0 x31 + 0 x32 + 0 x33 + 0 x34 + 0 x35 + 0 x36 + 0 x37 + 0 x38 + 0 x39 + 0 x40 + 0 x41 
  + 0 x42 + 0 x43 + 0 x44 + 0 x45 + 0 x46 + 0 x47 + 0 x48 + 0 x49 + 0 x50 + 0 x51 + 0 x52 + 0 x53 + 0 x54 
  + 0 x55 + 0 x56 + 0 x57 + 0 x58 + 0 x59 + 0 x60 + 0 x61 + 0 x62 + 0 x63 + 0 x64 + 0 x65 + 0 x66 + 0 x67 
  + 0 x68 + 0 x69 + 0 x70 + 0 x71 + 0 x72 + 0 x73 + 0 x74 + 0 x75 + 0 x76 + 0 x77 + 0 x78 + 0 x79 + 0 x80 
  + 0 x81 + 0 x82 + 0 x83 + 0 x84 + 0 x85 + 0 x86 + 0 x87 + 0 x88 + 0 x89 + 0 x90 + 0 x91 + 0 x92 + 0 x93 
  + 0 x94 + 0 x95 + 0 x96 + 0 x97 + 0 x98 + 0 x99 + 0 x100 + 0 x101 + 0 x102 + 0 x103 + 0 x104 + 0 x105 
  + 0 x106 + 0 x107 + 0 x108 + 0 x109 + 0 x110 + 0 x111 + 0 x112 + 0 x113 + 0 x114 + 0 x115 + 0 x116 
  + 0 x117 + 0 x118 + 0 x119 + 0 x120 + 0 x121 + 0 x122 + 0 x123 + 0 x124 + 0 x125 + 0 x126 + 0 x127 
  + 0 x128 + 0 x129 + 0 x130 + 0 x131 + 0 x132 + 0 x133 + 0 x134 + 0 x135 + 0 x136 + 0 x137 + 0 x138 
  + 0 x139 + 0 x140 + 0 x141 + 0 x142 + 0 x143 + 0 x144 + 0 x145 + 0 x146 + 0 x147 + 0 x148 + 0 x149 
  + 0 x150 + 0 x151 + 0 x152 + 0 x153 + 0 x154 + 0 x155 + 0 x156 + 0 x157 + 0 x158 + 0 x159 + 0 x160 
  + 0 x161 + 0 x162 + 0 x163 + 0 x164 + 0 x165 + 0 x166 + 0 x167 + 0 x168 + 0 x169 + 0 x170 + x171 + 0 x172 
  + 0 x173 + 0 x174 + 0 x175 + 0 x176 + 0 x177

Subject To
 e2: [ x3^2 ] <= 1
 e3: [ x3^2 ] <= 4
 e4: [ x3^2 ] <= 9
 e5: [ x3^2 - 2 x3 * x5 + x5^2 ] <= 16
 e6: [ x5^2 ] <= 9
 e7: [ x5^2 ] <= 4
 e8: [ x5^2 ] <= 1
 e9: [ x3^2 - 2 x3 * x7 + x7^2 ] <= 25
 e10: [ x7^2 ] <= 16
 e11: [ x7^2 ] <= 9
 e12: [ x7^2 ] <= 4
 e13: [ x5^2 - 2 x5 * x7 + x7^2 ] <= 1
 e14: [ x3^2 - 2 x3 * x9 + x9^2 ] <= 36
 e15: [ x9^2 ] <= 25
 e16: [ x9^2 ] <= 16
 e17: [ x9^2 ] <= 9
 e18: [ x5^2 - 2 x5 * x9 + x9^2 ] <= 4
 e19: [ x7^2 - 2 x7 * x9 + x9^2 ] <= 1
 e20: [ x2^2 - 2 x2 * x10 + x10^2 ] <= 1
 e21: [ 0.5 x10^2 - x10 * x11 + 0.5 x11^2 ] <= 2
 e22: [ 0.2 x10^2 - 0.8 x10 * x11 + 0.8 x11^2 ] <= 5
 e23: [ 0.1 x10^2 - 0.6 x10 * x11 + 0.9 x11^2 ] <= 10
 e24: [ 0.5 x2^2 + x2 * x3 - x2 * x12 - x2 * x13 + 0.5 x3^2 - x3 * x12 - x3 * x13 + 0.5 x12^2 + x12 * x13 
  + 0.5 x13^2 ] <= 2
 e25: [ x12^2 ] <= 1
 e26: [ 0.5 x12^2 - x12 * x13 + 0.5 x13^2 ] <= 2
 e27: [ 0.2 x12^2 - 0.8 x12 * x13 + 0.8 x13^2 ] <= 5
 e28: [ 0.1 x4^2 - 0.6 x4 * x5 - 0.2 x4 * x12 + 0.6 x4 * x13 + 0.9 x5^2 + 0.6 x5 * x12 - 1.8 x5 * x13 
  + 0.1 x12^2 - 0.6 x12 * x13 + 0.9 x13^2 ] <= 10
 e29: [ x11^2 - 2 x11 * x13 + x13^2 ] <= 1
 e30: [ 0.2 x2^2 + 0.8 x2 * x3 - 0.4 x2 * x14 - 0.8 x2 * x15 + 0.8 x3^2 - 0.8 x3 * x14 - 1.6 x3 * x15 
  + 0.2 x14^2 + 0.8 x14 * x15 + 0.8 x15^2 ] <= 5
 e31: [ 0.5 x14^2 + x14 * x15 + 0.5 x15^2 ] <= 2
 e32: [ x14^2 ] <= 1
 e33: [ 0.5 x14^2 - x14 * x15 + 0.5 x15^2 ] <= 2
 e34: [ 0.2 x4^2 - 0.8 x4 * x5 - 0.4 x4 * x14 + 0.8 x4 * x15 + 0.8 x5^2 + 0.8 x5 * x14 - 1.6 x5 * x15 
  + 0.2 x14^2 - 0.8 x14 * x15 + 0.8 x15^2 ] <= 5
 e35: [ 0.1 x6^2 - 0.6 x6 * x7 - 0.2 x6 * x14 + 0.6 x6 * x15 + 0.9 x7^2 + 0.6 x7 * x14 - 1.8 x7 * x15 
  + 0.1 x14^2 - 0.6 x14 * x15 + 0.9 x15^2 ] <= 10
 e36: [ x11^2 - 2 x11 * x15 + x15^2 ] <= 4
 e37: [ x13^2 - 2 x13 * x15 + x15^2 ] <= 1
 e38: [ 0.1 x2^2 + 0.6 x2 * x3 - 0.2 x2 * x16 - 0.6 x2 * x17 + 0.9 x3^2 - 0.6 x3 * x16 - 1.8 x3 * x17 
  + 0.1 x16^2 + 0.6 x16 * x17 + 0.9 x17^2 ] <= 10
 e39: [ 0.2 x16^2 + 0.8 x16 * x17 + 0.8 x17^2 ] <= 5
 e40: [ 0.5 x16^2 + x16 * x17 + 0.5 x17^2 ] <= 2
 e41: [ x16^2 ] <= 1
 e42: [ 0.5 x4^2 - x4 * x5 - x4 * x16 + x4 * x17 + 0.5 x5^2 + x5 * x16 - x5 * x17 + 0.5 x16^2 - x16 * x17 
  + 0.5 x17^2 ] <= 2
 e43: [ 0.2 x6^2 - 0.8 x6 * x7 - 0.4 x6 * x16 + 0.8 x6 * x17 + 0.8 x7^2 + 0.8 x7 * x16 - 1.6 x7 * x17 
  + 0.2 x16^2 - 0.8 x16 * x17 + 0.8 x17^2 ] <= 5
 e44: [ 0.1 x8^2 - 0.6 x8 * x9 - 0.2 x8 * x16 + 0.6 x8 * x17 + 0.9 x9^2 + 0.6 x9 * x16 - 1.8 x9 * x17 
  + 0.1 x16^2 - 0.6 x16 * x17 + 0.9 x17^2 ] <= 10
 e45: [ x11^2 - 2 x11 * x17 + x17^2 ] <= 9
 e46: [ x13^2 - 2 x13 * x17 + x17^2 ] <= 4
 e47: [ x15^2 - 2 x15 * x17 + x17^2 ] <= 1
 e48: [ 0.1 x18^2 + 0.6 x18 * x19 + 0.9 x19^2 ] <= 10
 e49: [ 0.2 x18^2 + 0.8 x18 * x19 + 0.8 x19^2 ] <= 5
 e50: [ 0.5 x18^2 + x18 * x19 + 0.5 x19^2 ] <= 2
 e51: [ x4^2 - 2 x4 * x18 + x18^2 ] <= 1
 e52: [ 0.5 x6^2 - x6 * x7 - x6 * x18 + x6 * x19 + 0.5 x7^2 + x7 * x18 - x7 * x19 + 0.5 x18^2 - x18 * x19 
  + 0.5 x19^2 ] <= 2
 e53: [ 0.2 x8^2 - 0.8 x8 * x9 - 0.4 x8 * x18 + 0.8 x8 * x19 + 0.8 x9^2 + 0.8 x9 * x18 - 1.6 x9 * x19 
  + 0.2 x18^2 - 0.8 x18 * x19 + 0.8 x19^2 ] <= 5
 e54: [ x11^2 - 2 x11 * x19 + x19^2 ] <= 16
 e55: [ x13^2 - 2 x13 * x19 + x19^2 ] <= 9
 e56: [ x15^2 - 2 x15 * x19 + x19^2 ] <= 4
 e57: [ x17^2 - 2 x17 * x19 + x19^2 ] <= 1
 e58: [ 0.1 x20^2 + 0.6 x20 * x21 + 0.9 x21^2 ] <= 10
 e59: [ 0.2 x20^2 + 0.8 x20 * x21 + 0.8 x21^2 ] <= 5
 e60: [ 0.5 x4^2 + x4 * x5 - x4 * x20 - x4 * x21 + 0.5 x5^2 - x5 * x20 - x5 * x21 + 0.5 x20^2 + x20 * x21 
  + 0.5 x21^2 ] <= 2
 e61: [ x6^2 - 2 x6 * x20 + x20^2 ] <= 1
 e62: [ 0.5 x8^2 - x8 * x9 - x8 * x20 + x8 * x21 + 0.5 x9^2 + x9 * x20 - x9 * x21 + 0.5 x20^2 - x20 * x21 
  + 0.5 x21^2 ] <= 2
 e63: [ x11^2 - 2 x11 * x21 + x21^2 ] <= 25
 e64: [ x13^2 - 2 x13 * x21 + x21^2 ] <= 16
 e65: [ x15^2 - 2 x15 * x21 + x21^2 ] <= 9
 e66: [ x17^2 - 2 x17 * x21 + x21^2 ] <= 4
 e67: [ x19^2 - 2 x19 * x21 + x21^2 ] <= 1
 e68: [ 0.1 x22^2 + 0.6 x22 * x23 + 0.9 x23^2 ] <= 10
 e69: [ 0.2 x4^2 + 0.8 x4 * x5 - 0.4 x4 * x22 - 0.8 x4 * x23 + 0.8 x5^2 - 0.8 x5 * x22 - 1.6 x5 * x23 
  + 0.2 x22^2 + 0.8 x22 * x23 + 0.8 x23^2 ] <= 5
 e70: [ 0.5 x6^2 + x6 * x7 - x6 * x22 - x6 * x23 + 0.5 x7^2 - x7 * x22 - x7 * x23 + 0.5 x22^2 + x22 * x23 
  + 0.5 x23^2 ] <= 2
 e71: [ x8^2 - 2 x8 * x22 + x22^2 ] <= 1
 e72: [ x11^2 - 2 x11 * x23 + x23^2 ] <= 36
 e73: [ x13^2 - 2 x13 * x23 + x23^2 ] <= 25
 e74: [ x15^2 - 2 x15 * x23 + x23^2 ] <= 16
 e75: [ x17^2 - 2 x17 * x23 + x23^2 ] <= 9
 e76: [ x19^2 - 2 x19 * x23 + x23^2 ] <= 4
 e77: [ x21^2 - 2 x21 * x23 + x23^2 ] <= 1
 e78: [ 0.8 x24^2 - 0.8 x24 * x25 + 0.2 x25^2 ] <= 5
 e79: [ 0.3076923077 x24^2 - 0.9230769231 x24 * x25 + 0.6923076923 x25^2 ] <= 13
 e80: [ x10^2 - 2 x10 * x24 + x24^2 ] <= 1
 e81: [ 0.5 x12^2 - x12 * x13 - x12 * x24 + x12 * x25 + 0.5 x13^2 + x13 * x24 - x13 * x25 + 0.5 x24^2 
  - x24 * x25 + 0.5 x25^2 ] <= 2
 e82: [ 0.2 x14^2 - 0.8 x14 * x15 - 0.4 x14 * x24 + 0.8 x14 * x25 + 0.8 x15^2 + 0.8 x15 * x24 - 1.6 x15 * x25 
  + 0.2 x24^2 - 0.8 x24 * x25 + 0.8 x25^2 ] <= 5
 e83: [ 0.1 x16^2 - 0.6 x16 * x17 - 0.2 x16 * x24 + 0.6 x16 * x25 + 0.9 x17^2 + 0.6 x17 * x24 - 1.8 x17 * x25 
  + 0.1 x24^2 - 0.6 x24 * x25 + 0.9 x25^2 ] <= 10
 e84: [ 0.8 x2^2 + 0.8 x2 * x3 - 1.6 x2 * x26 - 0.8 x2 * x27 + 0.2 x3^2 - 0.8 x3 * x26 - 0.4 x3 * x27 
  + 0.8 x26^2 + 0.8 x26 * x27 + 0.2 x27^2 ] <= 5
 e85: [ 0.8 x26^2 - 0.8 x26 * x27 + 0.2 x27^2 ] <= 5
 e86: [ 0.3076923077 x4^2 - 0.9230769231 x4 * x5 - 0.6153846154 x4 * x26 + 0.9230769231 x4 * x27 + 0.6923076923 x5^2 
  + 0.9230769231 x5 * x26 - 1.384615385 x5 * x27 + 0.3076923077 x26^2 - 0.9230769231 x26 * x27 + 0.6923076923 x27^2 
  ] <= 13
 e87: [ 0.5 x10^2 + x10 * x11 - x10 * x26 - x10 * x27 + 0.5 x11^2 - x11 * x26 - x11 * x27 + 0.5 x26^2 
  + x26 * x27 + 0.5 x27^2 ] <= 2
 e88: [ x12^2 - 2 x12 * x26 + x26^2 ] <= 1
 e89: [ 0.5 x14^2 - x14 * x15 - x14 * x26 + x14 * x27 + 0.5 x15^2 + x15 * x26 - x15 * x27 + 0.5 x26^2 
  - x26 * x27 + 0.5 x27^2 ] <= 2
 e90: [ 0.2 x16^2 - 0.8 x16 * x17 - 0.4 x16 * x26 + 0.8 x16 * x27 + 0.8 x17^2 + 0.8 x17 * x26 - 1.6 x17 * x27 
  + 0.2 x26^2 - 0.8 x26 * x27 + 0.8 x27^2 ] <= 5
 e91: [ 0.1 x18^2 - 0.6 x18 * x19 - 0.2 x18 * x26 + 0.6 x18 * x27 + 0.9 x19^2 + 0.6 x19 * x26 - 1.8 x19 * x27 
  + 0.1 x26^2 - 0.6 x26 * x27 + 0.9 x27^2 ] <= 10
 e92: [ x25^2 - 2 x25 * x27 + x27^2 ] <= 1
 e93: [ 0.8 x28^2 + 0.8 x28 * x29 + 0.2 x29^2 ] <= 5
 e94: [ 0.8 x28^2 - 0.8 x28 * x29 + 0.2 x29^2 ] <= 5
 e95: [ 0.3076923077 x6^2 - 0.9230769231 x6 * x7 - 0.6153846154 x6 * x28 + 0.9230769231 x6 * x29 + 0.6923076923 x7^2 
  + 0.9230769231 x7 * x28 - 1.384615385 x7 * x29 + 0.3076923077 x28^2 - 0.9230769231 x28 * x29 + 0.6923076923 x29^2 
  ] <= 13
 e96: [ 0.2 x10^2 + 0.8 x10 * x11 - 0.4 x10 * x28 - 0.8 x10 * x29 + 0.8 x11^2 - 0.8 x11 * x28 - 1.6 x11 * x29 
  + 0.2 x28^2 + 0.8 x28 * x29 + 0.8 x29^2 ] <= 5
 e97: [ 0.5 x12^2 + x12 * x13 - x12 * x28 - x12 * x29 + 0.5 x13^2 - x13 * x28 - x13 * x29 + 0.5 x28^2 
  + x28 * x29 + 0.5 x29^2 ] <= 2
 e98: [ x14^2 - 2 x14 * x28 + x28^2 ] <= 1
 e99: [ 0.5 x16^2 - x16 * x17 - x16 * x28 + x16 * x29 + 0.5 x17^2 + x17 * x28 - x17 * x29 + 0.5 x28^2 
  - x28 * x29 + 0.5 x29^2 ] <= 2
 e100: [ 0.2 x18^2 - 0.8 x18 * x19 - 0.4 x18 * x28 + 0.8 x18 * x29 + 0.8 x19^2 + 0.8 x19 * x28 - 1.6 x19 * x29 
  + 0.2 x28^2 - 0.8 x28 * x29 + 0.8 x29^2 ] <= 5
 e101: [ 0.1 x20^2 - 0.6 x20 * x21 - 0.2 x20 * x28 + 0.6 x20 * x29 + 0.9 x21^2 + 0.6 x21 * x28 - 1.8 x21 * x29 
  + 0.1 x28^2 - 0.6 x28 * x29 + 0.9 x29^2 ] <= 10
 e102: [ x25^2 - 2 x25 * x29 + x29^2 ] <= 4
 e103: [ x27^2 - 2 x27 * x29 + x29^2 ] <= 1
 e104: [ 0.3076923077 x2^2 + 0.9230769231 x2 * x3 - 0.6153846154 x2 * x30 - 0.9230769231 x2 * x31 + 0.6923076923 x3^2 
  - 0.9230769231 x3 * x30 - 1.384615385 x3 * x31 + 0.3076923077 x30^2 + 0.9230769231 x30 * x31 + 0.6923076923 x31^2 
  ] <= 13
 e105: [ 0.8 x30^2 + 0.8 x30 * x31 + 0.2 x31^2 ] <= 5
 e106: [ 0.8 x4^2 - 0.8 x4 * x5 - 1.6 x4 * x30 + 0.8 x4 * x31 + 0.2 x5^2 + 0.8 x5 * x30 - 0.4 x5 * x31 
  + 0.8 x30^2 - 0.8 x30 * x31 + 0.2 x31^2 ] <= 5
 e107: [ 0.3076923077 x8^2 - 0.9230769231 x8 * x9 - 0.6153846154 x8 * x30 + 0.9230769231 x8 * x31 + 0.6923076923 x9^2 
  + 0.9230769231 x9 * x30 - 1.384615385 x9 * x31 + 0.3076923077 x30^2 - 0.9230769231 x30 * x31 + 0.6923076923 x31^2 
  ] <= 13
 e108: [ 0.1 x10^2 + 0.6 x10 * x11 - 0.2 x10 * x30 - 0.6 x10 * x31 + 0.9 x11^2 - 0.6 x11 * x30 - 1.8 x11 * x31 
  + 0.1 x30^2 + 0.6 x30 * x31 + 0.9 x31^2 ] <= 10
 e109: [ 0.2 x12^2 + 0.8 x12 * x13 - 0.4 x12 * x30 - 0.8 x12 * x31 + 0.8 x13^2 - 0.8 x13 * x30 - 1.6 x13 * x31 
  + 0.2 x30^2 + 0.8 x30 * x31 + 0.8 x31^2 ] <= 5
 e110: [ 0.5 x14^2 + x14 * x15 - x14 * x30 - x14 * x31 + 0.5 x15^2 - x15 * x30 - x15 * x31 + 0.5 x30^2 
  + x30 * x31 + 0.5 x31^2 ] <= 2
 e111: [ x16^2 - 2 x16 * x30 + x30^2 ] <= 1
 e112: [ 0.5 x18^2 - x18 * x19 - x18 * x30 + x18 * x31 + 0.5 x19^2 + x19 * x30 - x19 * x31 + 0.5 x30^2 
  - x30 * x31 + 0.5 x31^2 ] <= 2
 e113: [ 0.2 x20^2 - 0.8 x20 * x21 - 0.4 x20 * x30 + 0.8 x20 * x31 + 0.8 x21^2 + 0.8 x21 * x30 - 1.6 x21 * x31 
  + 0.2 x30^2 - 0.8 x30 * x31 + 0.8 x31^2 ] <= 5
 e114: [ 0.1 x22^2 - 0.6 x22 * x23 - 0.2 x22 * x30 + 0.6 x22 * x31 + 0.9 x23^2 + 0.6 x23 * x30 - 1.8 x23 * x31 
  + 0.1 x30^2 - 0.6 x30 * x31 + 0.9 x31^2 ] <= 10
 e115: [ x25^2 - 2 x25 * x31 + x31^2 ] <= 9
 e116: [ x27^2 - 2 x27 * x31 + x31^2 ] <= 4
 e117: [ x29^2 - 2 x29 * x31 + x31^2 ] <= 1
 e118: [ 0.3076923077 x32^2 + 0.9230769231 x32 * x33 + 0.6923076923 x33^2 ] <= 13
 e119: [ 0.8 x32^2 + 0.8 x32 * x33 + 0.2 x33^2 ] <= 5
 e120: [ 0.8 x6^2 - 0.8 x6 * x7 - 1.6 x6 * x32 + 0.8 x6 * x33 + 0.2 x7^2 + 0.8 x7 * x32 - 0.4 x7 * x33 
  + 0.8 x32^2 - 0.8 x32 * x33 + 0.2 x33^2 ] <= 5
 e121: [ 0.1 x12^2 + 0.6 x12 * x13 - 0.2 x12 * x32 - 0.6 x12 * x33 + 0.9 x13^2 - 0.6 x13 * x32 - 1.8 x13 * x33 
  + 0.1 x32^2 + 0.6 x32 * x33 + 0.9 x33^2 ] <= 10
 e122: [ 0.2 x14^2 + 0.8 x14 * x15 - 0.4 x14 * x32 - 0.8 x14 * x33 + 0.8 x15^2 - 0.8 x15 * x32 - 1.6 x15 * x33 
  + 0.2 x32^2 + 0.8 x32 * x33 + 0.8 x33^2 ] <= 5
 e123: [ 0.5 x16^2 + x16 * x17 - x16 * x32 - x16 * x33 + 0.5 x17^2 - x17 * x32 - x17 * x33 + 0.5 x32^2 
  + x32 * x33 + 0.5 x33^2 ] <= 2
 e124: [ x18^2 - 2 x18 * x32 + x32^2 ] <= 1
 e125: [ 0.5 x20^2 - x20 * x21 - x20 * x32 + x20 * x33 + 0.5 x21^2 + x21 * x32 - x21 * x33 + 0.5 x32^2 
  - x32 * x33 + 0.5 x33^2 ] <= 2
 e126: [ 0.2 x22^2 - 0.8 x22 * x23 - 0.4 x22 * x32 + 0.8 x22 * x33 + 0.8 x23^2 + 0.8 x23 * x32 - 1.6 x23 * x33 
  + 0.2 x32^2 - 0.8 x32 * x33 + 0.8 x33^2 ] <= 5
 e127: [ x25^2 - 2 x25 * x33 + x33^2 ] <= 16
 e128: [ x27^2 - 2 x27 * x33 + x33^2 ] <= 9
 e129: [ x29^2 - 2 x29 * x33 + x33^2 ] <= 4
 e130: [ x31^2 - 2 x31 * x33 + x33^2 ] <= 1
 e131: [ 0.3076923077 x34^2 + 0.9230769231 x34 * x35 + 0.6923076923 x35^2 ] <= 13
 e132: [ 0.8 x4^2 + 0.8 x4 * x5 - 1.6 x4 * x34 - 0.8 x4 * x35 + 0.2 x5^2 - 0.8 x5 * x34 - 0.4 x5 * x35 
  + 0.8 x34^2 + 0.8 x34 * x35 + 0.2 x35^2 ] <= 5
 e133: [ 0.8 x8^2 - 0.8 x8 * x9 - 1.6 x8 * x34 + 0.8 x8 * x35 + 0.2 x9^2 + 0.8 x9 * x34 - 0.4 x9 * x35 
  + 0.8 x34^2 - 0.8 x34 * x35 + 0.2 x35^2 ] <= 5
 e134: [ 0.1 x14^2 + 0.6 x14 * x15 - 0.2 x14 * x34 - 0.6 x14 * x35 + 0.9 x15^2 - 0.6 x15 * x34 - 1.8 x15 * x35 
  + 0.1 x34^2 + 0.6 x34 * x35 + 0.9 x35^2 ] <= 10
 e135: [ 0.2 x16^2 + 0.8 x16 * x17 - 0.4 x16 * x34 - 0.8 x16 * x35 + 0.8 x17^2 - 0.8 x17 * x34 - 1.6 x17 * x35 
  + 0.2 x34^2 + 0.8 x34 * x35 + 0.8 x35^2 ] <= 5
 e136: [ 0.5 x18^2 + x18 * x19 - x18 * x34 - x18 * x35 + 0.5 x19^2 - x19 * x34 - x19 * x35 + 0.5 x34^2 
  + x34 * x35 + 0.5 x35^2 ] <= 2
 e137: [ x20^2 - 2 x20 * x34 + x34^2 ] <= 1
 e138: [ 0.5 x22^2 - x22 * x23 - x22 * x34 + x22 * x35 + 0.5 x23^2 + x23 * x34 - x23 * x35 + 0.5 x34^2 
  - x34 * x35 + 0.5 x35^2 ] <= 2
 e139: [ x25^2 - 2 x25 * x35 + x35^2 ] <= 25
 e140: [ x27^2 - 2 x27 * x35 + x35^2 ] <= 16
 e141: [ x29^2 - 2 x29 * x35 + x35^2 ] <= 9
 e142: [ x31^2 - 2 x31 * x35 + x35^2 ] <= 4
 e143: [ x33^2 - 2 x33 * x35 + x35^2 ] <= 1
 e144: [ 0.3076923077 x36^2 + 0.9230769231 x36 * x37 + 0.6923076923 x37^2 ] <= 13
 e145: [ 0.8 x6^2 + 0.8 x6 * x7 - 1.6 x6 * x36 - 0.8 x6 * x37 + 0.2 x7^2 - 0.8 x7 * x36 - 0.4 x7 * x37 
  + 0.8 x36^2 + 0.8 x36 * x37 + 0.2 x37^2 ] <= 5
 e146: [ 0.1 x16^2 + 0.6 x16 * x17 - 0.2 x16 * x36 - 0.6 x16 * x37 + 0.9 x17^2 - 0.6 x17 * x36 - 1.8 x17 * x37 
  + 0.1 x36^2 + 0.6 x36 * x37 + 0.9 x37^2 ] <= 10
 e147: [ 0.2 x18^2 + 0.8 x18 * x19 - 0.4 x18 * x36 - 0.8 x18 * x37 + 0.8 x19^2 - 0.8 x19 * x36 - 1.6 x19 * x37 
  + 0.2 x36^2 + 0.8 x36 * x37 + 0.8 x37^2 ] <= 5
 e148: [ 0.5 x20^2 + x20 * x21 - x20 * x36 - x20 * x37 + 0.5 x21^2 - x21 * x36 - x21 * x37 + 0.5 x36^2 
  + x36 * x37 + 0.5 x37^2 ] <= 2
 e149: [ x22^2 - 2 x22 * x36 + x36^2 ] <= 1
 e150: [ x25^2 - 2 x25 * x37 + x37^2 ] <= 36
 e151: [ x27^2 - 2 x27 * x37 + x37^2 ] <= 25
 e152: [ x29^2 - 2 x29 * x37 + x37^2 ] <= 16
 e153: [ x31^2 - 2 x31 * x37 + x37^2 ] <= 9
 e154: [ x33^2 - 2 x33 * x37 + x37^2 ] <= 4
 e155: [ x35^2 - 2 x35 * x37 + x37^2 ] <= 1
 e156: [ 0.9 x38^2 - 0.6 x38 * x39 + 0.1 x39^2 ] <= 10
 e157: [ 0.6923076923 x38^2 - 0.9230769231 x38 * x39 + 0.3076923077 x39^2 ] <= 13
 e158: [ 0.8 x12^2 - 0.8 x12 * x13 - 1.6 x12 * x38 + 0.8 x12 * x39 + 0.2 x13^2 + 0.8 x13 * x38 - 0.4 x13 * x39 
  + 0.8 x38^2 - 0.8 x38 * x39 + 0.2 x39^2 ] <= 5
 e159: [ 0.3076923077 x16^2 - 0.9230769231 x16 * x17 - 0.6153846154 x16 * x38 + 0.9230769231 x16 * x39 
  + 0.6923076923 x17^2 + 0.9230769231 x17 * x38 - 1.384615385 x17 * x39 + 0.3076923077 x38^2 - 0.9230769231 x38 * x39 
  + 0.6923076923 x39^2 ] <= 13
 e160: [ x24^2 - 2 x24 * x38 + x38^2 ] <= 1
 e161: [ 0.5 x26^2 - x26 * x27 - x26 * x38 + x26 * x39 + 0.5 x27^2 + x27 * x38 - x27 * x39 + 0.5 x38^2 
  - x38 * x39 + 0.5 x39^2 ] <= 2
 e162: [ 0.2 x28^2 - 0.8 x28 * x29 - 0.4 x28 * x38 + 0.8 x28 * x39 + 0.8 x29^2 + 0.8 x29 * x38 - 1.6 x29 * x39 
  + 0.2 x38^2 - 0.8 x38 * x39 + 0.8 x39^2 ] <= 5
 e163: [ 0.1 x30^2 - 0.6 x30 * x31 - 0.2 x30 * x38 + 0.6 x30 * x39 + 0.9 x31^2 + 0.6 x31 * x38 - 1.8 x31 * x39 
  + 0.1 x38^2 - 0.6 x38 * x39 + 0.9 x39^2 ] <= 10
 e164: [ 0.9 x2^2 + 0.6 x2 * x3 - 1.8 x2 * x40 - 0.6 x2 * x41 + 0.1 x3^2 - 0.6 x3 * x40 - 0.2 x3 * x41 
  + 0.9 x40^2 + 0.6 x40 * x41 + 0.1 x41^2 ] <= 10
 e165: [ 0.9 x40^2 - 0.6 x40 * x41 + 0.1 x41^2 ] <= 10
 e166: [ 0.6923076923 x40^2 - 0.9230769231 x40 * x41 + 0.3076923077 x41^2 ] <= 13
 e167: [ 0.8 x10^2 + 0.8 x10 * x11 - 1.6 x10 * x40 - 0.8 x10 * x41 + 0.2 x11^2 - 0.8 x11 * x40 - 0.4 x11 * x41 
  + 0.8 x40^2 + 0.8 x40 * x41 + 0.2 x41^2 ] <= 5
 e168: [ 0.8 x14^2 - 0.8 x14 * x15 - 1.6 x14 * x40 + 0.8 x14 * x41 + 0.2 x15^2 + 0.8 x15 * x40 - 0.4 x15 * x41 
  + 0.8 x40^2 - 0.8 x40 * x41 + 0.2 x41^2 ] <= 5
 e169: [ 0.3076923077 x18^2 - 0.9230769231 x18 * x19 - 0.6153846154 x18 * x40 + 0.9230769231 x18 * x41 
  + 0.6923076923 x19^2 + 0.9230769231 x19 * x40 - 1.384615385 x19 * x41 + 0.3076923077 x40^2 - 0.9230769231 x40 * x41 
  + 0.6923076923 x41^2 ] <= 13
 e170: [ 0.5 x24^2 + x24 * x25 - x24 * x40 - x24 * x41 + 0.5 x25^2 - x25 * x40 - x25 * x41 + 0.5 x40^2 
  + x40 * x41 + 0.5 x41^2 ] <= 2
 e171: [ x26^2 - 2 x26 * x40 + x40^2 ] <= 1
 e172: [ 0.5 x28^2 - x28 * x29 - x28 * x40 + x28 * x41 + 0.5 x29^2 + x29 * x40 - x29 * x41 + 0.5 x40^2 
  - x40 * x41 + 0.5 x41^2 ] <= 2
 e173: [ 0.2 x30^2 - 0.8 x30 * x31 - 0.4 x30 * x40 + 0.8 x30 * x41 + 0.8 x31^2 + 0.8 x31 * x40 - 1.6 x31 * x41 
  + 0.2 x40^2 - 0.8 x40 * x41 + 0.8 x41^2 ] <= 5
 e174: [ 0.1 x32^2 - 0.6 x32 * x33 - 0.2 x32 * x40 + 0.6 x32 * x41 + 0.9 x33^2 + 0.6 x33 * x40 - 1.8 x33 * x41 
  + 0.1 x40^2 - 0.6 x40 * x41 + 0.9 x41^2 ] <= 10
 e175: [ x39^2 - 2 x39 * x41 + x41^2 ] <= 1
 e176: [ 0.6923076923 x2^2 + 0.9230769231 x2 * x3 - 1.384615385 x2 * x42 - 0.9230769231 x2 * x43 + 0.3076923077 x3^2 
  - 0.9230769231 x3 * x42 - 0.6153846154 x3 * x43 + 0.6923076923 x42^2 + 0.9230769231 x42 * x43 + 0.3076923077 x43^2 
  ] <= 13
 e177: [ 0.9 x42^2 + 0.6 x42 * x43 + 0.1 x43^2 ] <= 10
 e178: [ 0.9 x42^2 - 0.6 x42 * x43 + 0.1 x43^2 ] <= 10
 e179: [ 0.6923076923 x4^2 - 0.9230769231 x4 * x5 - 1.384615385 x4 * x42 + 0.9230769231 x4 * x43 + 0.3076923077 x5^2 
  + 0.9230769231 x5 * x42 - 0.6153846154 x5 * x43 + 0.6923076923 x42^2 - 0.9230769231 x42 * x43 + 0.3076923077 x43^2 
  ] <= 13
 e180: [ 0.8 x12^2 + 0.8 x12 * x13 - 1.6 x12 * x42 - 0.8 x12 * x43 + 0.2 x13^2 - 0.8 x13 * x42 - 0.4 x13 * x43 
  + 0.8 x42^2 + 0.8 x42 * x43 + 0.2 x43^2 ] <= 5
 e181: [ 0.8 x16^2 - 0.8 x16 * x17 - 1.6 x16 * x42 + 0.8 x16 * x43 + 0.2 x17^2 + 0.8 x17 * x42 - 0.4 x17 * x43 
  + 0.8 x42^2 - 0.8 x42 * x43 + 0.2 x43^2 ] <= 5
 e182: [ 0.3076923077 x20^2 - 0.9230769231 x20 * x21 - 0.6153846154 x20 * x42 + 0.9230769231 x20 * x43 
  + 0.6923076923 x21^2 + 0.9230769231 x21 * x42 - 1.384615385 x21 * x43 + 0.3076923077 x42^2 - 0.9230769231 x42 * x43 
  + 0.6923076923 x43^2 ] <= 13
 e183: [ 0.2 x24^2 + 0.8 x24 * x25 - 0.4 x24 * x42 - 0.8 x24 * x43 + 0.8 x25^2 - 0.8 x25 * x42 - 1.6 x25 * x43 
  + 0.2 x42^2 + 0.8 x42 * x43 + 0.8 x43^2 ] <= 5
 e184: [ 0.5 x26^2 + x26 * x27 - x26 * x42 - x26 * x43 + 0.5 x27^2 - x27 * x42 - x27 * x43 + 0.5 x42^2 
  + x42 * x43 + 0.5 x43^2 ] <= 2
 e185: [ x28^2 - 2 x28 * x42 + x42^2 ] <= 1
 e186: [ 0.5 x30^2 - x30 * x31 - x30 * x42 + x30 * x43 + 0.5 x31^2 + x31 * x42 - x31 * x43 + 0.5 x42^2 
  - x42 * x43 + 0.5 x43^2 ] <= 2
 e187: [ 0.2 x32^2 - 0.8 x32 * x33 - 0.4 x32 * x42 + 0.8 x32 * x43 + 0.8 x33^2 + 0.8 x33 * x42 - 1.6 x33 * x43 
  + 0.2 x42^2 - 0.8 x42 * x43 + 0.8 x43^2 ] <= 5
 e188: [ 0.1 x34^2 - 0.6 x34 * x35 - 0.2 x34 * x42 + 0.6 x34 * x43 + 0.9 x35^2 + 0.6 x35 * x42 - 1.8 x35 * x43 
  + 0.1 x42^2 - 0.6 x42 * x43 + 0.9 x43^2 ] <= 10
 e189: [ x39^2 - 2 x39 * x43 + x43^2 ] <= 4
 e190: [ x41^2 - 2 x41 * x43 + x43^2 ] <= 1
 e191: [ 0.6923076923 x44^2 + 0.9230769231 x44 * x45 + 0.3076923077 x45^2 ] <= 13
 e192: [ 0.9 x44^2 + 0.6 x44 * x45 + 0.1 x45^2 ] <= 10
 e193: [ 0.9 x4^2 - 0.6 x4 * x5 - 1.8 x4 * x44 + 0.6 x4 * x45 + 0.1 x5^2 + 0.6 x5 * x44 - 0.2 x5 * x45 
  + 0.9 x44^2 - 0.6 x44 * x45 + 0.1 x45^2 ] <= 10
 e194: [ 0.6923076923 x6^2 - 0.9230769231 x6 * x7 - 1.384615385 x6 * x44 + 0.9230769231 x6 * x45 + 0.3076923077 x7^2 
  + 0.9230769231 x7 * x44 - 0.6153846154 x7 * x45 + 0.6923076923 x44^2 - 0.9230769231 x44 * x45 + 0.3076923077 x45^2 
  ] <= 13
 e195: [ 0.3076923077 x10^2 + 0.9230769231 x10 * x11 - 0.6153846154 x10 * x44 - 0.9230769231 x10 * x45 
  + 0.6923076923 x11^2 - 0.9230769231 x11 * x44 - 1.384615385 x11 * x45 + 0.3076923077 x44^2 + 0.9230769231 x44 * x45 
  + 0.6923076923 x45^2 ] <= 13
 e196: [ 0.8 x14^2 + 0.8 x14 * x15 - 1.6 x14 * x44 - 0.8 x14 * x45 + 0.2 x15^2 - 0.8 x15 * x44 - 0.4 x15 * x45 
  + 0.8 x44^2 + 0.8 x44 * x45 + 0.2 x45^2 ] <= 5
 e197: [ 0.8 x18^2 - 0.8 x18 * x19 - 1.6 x18 * x44 + 0.8 x18 * x45 + 0.2 x19^2 + 0.8 x19 * x44 - 0.4 x19 * x45 
  + 0.8 x44^2 - 0.8 x44 * x45 + 0.2 x45^2 ] <= 5
 e198: [ 0.3076923077 x22^2 - 0.9230769231 x22 * x23 - 0.6153846154 x22 * x44 + 0.9230769231 x22 * x45 
  + 0.6923076923 x23^2 + 0.9230769231 x23 * x44 - 1.384615385 x23 * x45 + 0.3076923077 x44^2 - 0.9230769231 x44 * x45 
  + 0.6923076923 x45^2 ] <= 13
 e199: [ 0.1 x24^2 + 0.6 x24 * x25 - 0.2 x24 * x44 - 0.6 x24 * x45 + 0.9 x25^2 - 0.6 x25 * x44 - 1.8 x25 * x45 
  + 0.1 x44^2 + 0.6 x44 * x45 + 0.9 x45^2 ] <= 10
 e200: [ 0.2 x26^2 + 0.8 x26 * x27 - 0.4 x26 * x44 - 0.8 x26 * x45 + 0.8 x27^2 - 0.8 x27 * x44 - 1.6 x27 * x45 
  + 0.2 x44^2 + 0.8 x44 * x45 + 0.8 x45^2 ] <= 5
 e201: [ 0.5 x28^2 + x28 * x29 - x28 * x44 - x28 * x45 + 0.5 x29^2 - x29 * x44 - x29 * x45 + 0.5 x44^2 
  + x44 * x45 + 0.5 x45^2 ] <= 2
 e202: [ x30^2 - 2 x30 * x44 + x44^2 ] <= 1
 e203: [ 0.5 x32^2 - x32 * x33 - x32 * x44 + x32 * x45 + 0.5 x33^2 + x33 * x44 - x33 * x45 + 0.5 x44^2 
  - x44 * x45 + 0.5 x45^2 ] <= 2
 e204: [ 0.2 x34^2 - 0.8 x34 * x35 - 0.4 x34 * x44 + 0.8 x34 * x45 + 0.8 x35^2 + 0.8 x35 * x44 - 1.6 x35 * x45 
  + 0.2 x44^2 - 0.8 x44 * x45 + 0.8 x45^2 ] <= 5
 e205: [ 0.1 x36^2 - 0.6 x36 * x37 - 0.2 x36 * x44 + 0.6 x36 * x45 + 0.9 x37^2 + 0.6 x37 * x44 - 1.8 x37 * x45 
  + 0.1 x44^2 - 0.6 x44 * x45 + 0.9 x45^2 ] <= 10
 e206: [ x39^2 - 2 x39 * x45 + x45^2 ] <= 9
 e207: [ x41^2 - 2 x41 * x45 + x45^2 ] <= 4
 e208: [ x43^2 - 2 x43 * x45 + x45^2 ] <= 1
 e209: [ 0.6923076923 x46^2 + 0.9230769231 x46 * x47 + 0.3076923077 x47^2 ] <= 13
 e210: [ 0.9 x46^2 + 0.6 x46 * x47 + 0.1 x47^2 ] <= 10
 e211: [ 0.9 x6^2 - 0.6 x6 * x7 - 1.8 x6 * x46 + 0.6 x6 * x47 + 0.1 x7^2 + 0.6 x7 * x46 - 0.2 x7 * x47 
  + 0.9 x46^2 - 0.6 x46 * x47 + 0.1 x47^2 ] <= 10
 e212: [ 0.6923076923 x8^2 - 0.9230769231 x8 * x9 - 1.384615385 x8 * x46 + 0.9230769231 x8 * x47 + 0.3076923077 x9^2 
  + 0.9230769231 x9 * x46 - 0.6153846154 x9 * x47 + 0.6923076923 x46^2 - 0.9230769231 x46 * x47 + 0.3076923077 x47^2 
  ] <= 13
 e213: [ 0.3076923077 x12^2 + 0.9230769231 x12 * x13 - 0.6153846154 x12 * x46 - 0.9230769231 x12 * x47 
  + 0.6923076923 x13^2 - 0.9230769231 x13 * x46 - 1.384615385 x13 * x47 + 0.3076923077 x46^2 + 0.9230769231 x46 * x47 
  + 0.6923076923 x47^2 ] <= 13
 e214: [ 0.8 x16^2 + 0.8 x16 * x17 - 1.6 x16 * x46 - 0.8 x16 * x47 + 0.2 x17^2 - 0.8 x17 * x46 - 0.4 x17 * x47 
  + 0.8 x46^2 + 0.8 x46 * x47 + 0.2 x47^2 ] <= 5
 e215: [ 0.8 x20^2 - 0.8 x20 * x21 - 1.6 x20 * x46 + 0.8 x20 * x47 + 0.2 x21^2 + 0.8 x21 * x46 - 0.4 x21 * x47 
  + 0.8 x46^2 - 0.8 x46 * x47 + 0.2 x47^2 ] <= 5
 e216: [ 0.1 x26^2 + 0.6 x26 * x27 - 0.2 x26 * x46 - 0.6 x26 * x47 + 0.9 x27^2 - 0.6 x27 * x46 - 1.8 x27 * x47 
  + 0.1 x46^2 + 0.6 x46 * x47 + 0.9 x47^2 ] <= 10
 e217: [ 0.2 x28^2 + 0.8 x28 * x29 - 0.4 x28 * x46 - 0.8 x28 * x47 + 0.8 x29^2 - 0.8 x29 * x46 - 1.6 x29 * x47 
  + 0.2 x46^2 + 0.8 x46 * x47 + 0.8 x47^2 ] <= 5
 e218: [ 0.5 x30^2 + x30 * x31 - x30 * x46 - x30 * x47 + 0.5 x31^2 - x31 * x46 - x31 * x47 + 0.5 x46^2 
  + x46 * x47 + 0.5 x47^2 ] <= 2
 e219: [ x32^2 - 2 x32 * x46 + x46^2 ] <= 1
 e220: [ 0.5 x34^2 - x34 * x35 - x34 * x46 + x34 * x47 + 0.5 x35^2 + x35 * x46 - x35 * x47 + 0.5 x46^2 
  - x46 * x47 + 0.5 x47^2 ] <= 2
 e221: [ 0.2 x36^2 - 0.8 x36 * x37 - 0.4 x36 * x46 + 0.8 x36 * x47 + 0.8 x37^2 + 0.8 x37 * x46 - 1.6 x37 * x47 
  + 0.2 x46^2 - 0.8 x46 * x47 + 0.8 x47^2 ] <= 5
 e222: [ x39^2 - 2 x39 * x47 + x47^2 ] <= 16
 e223: [ x41^2 - 2 x41 * x47 + x47^2 ] <= 9
 e224: [ x43^2 - 2 x43 * x47 + x47^2 ] <= 4
 e225: [ x45^2 - 2 x45 * x47 + x47^2 ] <= 1
 e226: [ 0.6923076923 x48^2 + 0.9230769231 x48 * x49 + 0.3076923077 x49^2 ] <= 13
 e227: [ 0.9 x4^2 + 0.6 x4 * x5 - 1.8 x4 * x48 - 0.6 x4 * x49 + 0.1 x5^2 - 0.6 x5 * x48 - 0.2 x5 * x49 
  + 0.9 x48^2 + 0.6 x48 * x49 + 0.1 x49^2 ] <= 10
 e228: [ 0.9 x8^2 - 0.6 x8 * x9 - 1.8 x8 * x48 + 0.6 x8 * x49 + 0.1 x9^2 + 0.6 x9 * x48 - 0.2 x9 * x49 
  + 0.9 x48^2 - 0.6 x48 * x49 + 0.1 x49^2 ] <= 10
 e229: [ 0.3076923077 x14^2 + 0.9230769231 x14 * x15 - 0.6153846154 x14 * x48 - 0.9230769231 x14 * x49 
  + 0.6923076923 x15^2 - 0.9230769231 x15 * x48 - 1.384615385 x15 * x49 + 0.3076923077 x48^2 + 0.9230769231 x48 * x49 
  + 0.6923076923 x49^2 ] <= 13
 e230: [ 0.8 x18^2 + 0.8 x18 * x19 - 1.6 x18 * x48 - 0.8 x18 * x49 + 0.2 x19^2 - 0.8 x19 * x48 - 0.4 x19 * x49 
  + 0.8 x48^2 + 0.8 x48 * x49 + 0.2 x49^2 ] <= 5
 e231: [ 0.8 x22^2 - 0.8 x22 * x23 - 1.6 x22 * x48 + 0.8 x22 * x49 + 0.2 x23^2 + 0.8 x23 * x48 - 0.4 x23 * x49 
  + 0.8 x48^2 - 0.8 x48 * x49 + 0.2 x49^2 ] <= 5
 e232: [ 0.1 x28^2 + 0.6 x28 * x29 - 0.2 x28 * x48 - 0.6 x28 * x49 + 0.9 x29^2 - 0.6 x29 * x48 - 1.8 x29 * x49 
  + 0.1 x48^2 + 0.6 x48 * x49 + 0.9 x49^2 ] <= 10
 e233: [ 0.2 x30^2 + 0.8 x30 * x31 - 0.4 x30 * x48 - 0.8 x30 * x49 + 0.8 x31^2 - 0.8 x31 * x48 - 1.6 x31 * x49 
  + 0.2 x48^2 + 0.8 x48 * x49 + 0.8 x49^2 ] <= 5
 e234: [ 0.5 x32^2 + x32 * x33 - x32 * x48 - x32 * x49 + 0.5 x33^2 - x33 * x48 - x33 * x49 + 0.5 x48^2 
  + x48 * x49 + 0.5 x49^2 ] <= 2
 e235: [ x34^2 - 2 x34 * x48 + x48^2 ] <= 1
 e236: [ 0.5 x36^2 - x36 * x37 - x36 * x48 + x36 * x49 + 0.5 x37^2 + x37 * x48 - x37 * x49 + 0.5 x48^2 
  - x48 * x49 + 0.5 x49^2 ] <= 2
 e237: [ x39^2 - 2 x39 * x49 + x49^2 ] <= 25
 e238: [ x41^2 - 2 x41 * x49 + x49^2 ] <= 16
 e239: [ x43^2 - 2 x43 * x49 + x49^2 ] <= 9
 e240: [ x45^2 - 2 x45 * x49 + x49^2 ] <= 4
 e241: [ x47^2 - 2 x47 * x49 + x49^2 ] <= 1
 e242: [ 0.6923076923 x4^2 + 0.9230769231 x4 * x5 - 1.384615385 x4 * x50 - 0.9230769231 x4 * x51 + 0.3076923077 x5^2 
  - 0.9230769231 x5 * x50 - 0.6153846154 x5 * x51 + 0.6923076923 x50^2 + 0.9230769231 x50 * x51 + 0.3076923077 x51^2 
  ] <= 13
 e243: [ 0.9 x6^2 + 0.6 x6 * x7 - 1.8 x6 * x50 - 0.6 x6 * x51 + 0.1 x7^2 - 0.6 x7 * x50 - 0.2 x7 * x51 
  + 0.9 x50^2 + 0.6 x50 * x51 + 0.1 x51^2 ] <= 10
 e244: [ 0.3076923077 x16^2 + 0.9230769231 x16 * x17 - 0.6153846154 x16 * x50 - 0.9230769231 x16 * x51 
  + 0.6923076923 x17^2 - 0.9230769231 x17 * x50 - 1.384615385 x17 * x51 + 0.3076923077 x50^2 + 0.9230769231 x50 * x51 
  + 0.6923076923 x51^2 ] <= 13
 e245: [ 0.8 x20^2 + 0.8 x20 * x21 - 1.6 x20 * x50 - 0.8 x20 * x51 + 0.2 x21^2 - 0.8 x21 * x50 - 0.4 x21 * x51 
  + 0.8 x50^2 + 0.8 x50 * x51 + 0.2 x51^2 ] <= 5
 e246: [ 0.1 x30^2 + 0.6 x30 * x31 - 0.2 x30 * x50 - 0.6 x30 * x51 + 0.9 x31^2 - 0.6 x31 * x50 - 1.8 x31 * x51 
  + 0.1 x50^2 + 0.6 x50 * x51 + 0.9 x51^2 ] <= 10
 e247: [ 0.2 x32^2 + 0.8 x32 * x33 - 0.4 x32 * x50 - 0.8 x32 * x51 + 0.8 x33^2 - 0.8 x33 * x50 - 1.6 x33 * x51 
  + 0.2 x50^2 + 0.8 x50 * x51 + 0.8 x51^2 ] <= 5
 e248: [ 0.5 x34^2 + x34 * x35 - x34 * x50 - x34 * x51 + 0.5 x35^2 - x35 * x50 - x35 * x51 + 0.5 x50^2 
  + x50 * x51 + 0.5 x51^2 ] <= 2
 e249: [ x36^2 - 2 x36 * x50 + x50^2 ] <= 1
 e250: [ x39^2 - 2 x39 * x51 + x51^2 ] <= 36
 e251: [ x41^2 - 2 x41 * x51 + x51^2 ] <= 25
 e252: [ x43^2 - 2 x43 * x51 + x51^2 ] <= 16
 e253: [ x45^2 - 2 x45 * x51 + x51^2 ] <= 9
 e254: [ x47^2 - 2 x47 * x51 + x51^2 ] <= 4
 e255: [ x49^2 - 2 x49 * x51 + x51^2 ] <= 1
 e256: [ 0.9 x12^2 - 0.6 x12 * x13 - 1.8 x12 * x52 + 0.6 x12 * x53 + 0.1 x13^2 + 0.6 x13 * x52 - 0.2 x13 * x53 
  + 0.9 x52^2 - 0.6 x52 * x53 + 0.1 x53^2 ] <= 10
 e257: [ 0.6923076923 x14^2 - 0.9230769231 x14 * x15 - 1.384615385 x14 * x52 + 0.9230769231 x14 * x53 
  + 0.3076923077 x15^2 + 0.9230769231 x15 * x52 - 0.6153846154 x15 * x53 + 0.6923076923 x52^2 - 0.9230769231 x52 * x53 
  + 0.3076923077 x53^2 ] <= 13
 e258: [ 0.8 x26^2 - 0.8 x26 * x27 - 1.6 x26 * x52 + 0.8 x26 * x53 + 0.2 x27^2 + 0.8 x27 * x52 - 0.4 x27 * x53 
  + 0.8 x52^2 - 0.8 x52 * x53 + 0.2 x53^2 ] <= 5
 e259: [ 0.3076923077 x30^2 - 0.9230769231 x30 * x31 - 0.6153846154 x30 * x52 + 0.9230769231 x30 * x53 
  + 0.6923076923 x31^2 + 0.9230769231 x31 * x52 - 1.384615385 x31 * x53 + 0.3076923077 x52^2 - 0.9230769231 x52 * x53 
  + 0.6923076923 x53^2 ] <= 13
 e260: [ x38^2 - 2 x38 * x52 + x52^2 ] <= 1
 e261: [ 0.5 x40^2 - x40 * x41 - x40 * x52 + x40 * x53 + 0.5 x41^2 + x41 * x52 - x41 * x53 + 0.5 x52^2 
  - x52 * x53 + 0.5 x53^2 ] <= 2
 e262: [ 0.2 x42^2 - 0.8 x42 * x43 - 0.4 x42 * x52 + 0.8 x42 * x53 + 0.8 x43^2 + 0.8 x43 * x52 - 1.6 x43 * x53 
  + 0.2 x52^2 - 0.8 x52 * x53 + 0.8 x53^2 ] <= 5
 e263: [ 0.1 x44^2 - 0.6 x44 * x45 - 0.2 x44 * x52 + 0.6 x44 * x53 + 0.9 x45^2 + 0.6 x45 * x52 - 1.8 x45 * x53 
  + 0.1 x52^2 - 0.6 x52 * x53 + 0.9 x53^2 ] <= 10
 e264: [ 0.9 x10^2 + 0.6 x10 * x11 - 1.8 x10 * x54 - 0.6 x10 * x55 + 0.1 x11^2 - 0.6 x11 * x54 - 0.2 x11 * x55 
  + 0.9 x54^2 + 0.6 x54 * x55 + 0.1 x55^2 ] <= 10
 e265: [ 0.9 x14^2 - 0.6 x14 * x15 - 1.8 x14 * x54 + 0.6 x14 * x55 + 0.1 x15^2 + 0.6 x15 * x54 - 0.2 x15 * x55 
  + 0.9 x54^2 - 0.6 x54 * x55 + 0.1 x55^2 ] <= 10
 e266: [ 0.6923076923 x16^2 - 0.9230769231 x16 * x17 - 1.384615385 x16 * x54 + 0.9230769231 x16 * x55 
  + 0.3076923077 x17^2 + 0.9230769231 x17 * x54 - 0.6153846154 x17 * x55 + 0.6923076923 x54^2 - 0.9230769231 x54 * x55 
  + 0.3076923077 x55^2 ] <= 13
 e267: [ 0.8 x24^2 + 0.8 x24 * x25 - 1.6 x24 * x54 - 0.8 x24 * x55 + 0.2 x25^2 - 0.8 x25 * x54 - 0.4 x25 * x55 
  + 0.8 x54^2 + 0.8 x54 * x55 + 0.2 x55^2 ] <= 5
 e268: [ 0.8 x28^2 - 0.8 x28 * x29 - 1.6 x28 * x54 + 0.8 x28 * x55 + 0.2 x29^2 + 0.8 x29 * x54 - 0.4 x29 * x55 
  + 0.8 x54^2 - 0.8 x54 * x55 + 0.2 x55^2 ] <= 5
 e269: [ 0.3076923077 x32^2 - 0.9230769231 x32 * x33 - 0.6153846154 x32 * x54 + 0.9230769231 x32 * x55 
  + 0.6923076923 x33^2 + 0.9230769231 x33 * x54 - 1.384615385 x33 * x55 + 0.3076923077 x54^2 - 0.9230769231 x54 * x55 
  + 0.6923076923 x55^2 ] <= 13
 e270: [ 0.5 x38^2 + x38 * x39 - x38 * x54 - x38 * x55 + 0.5 x39^2 - x39 * x54 - x39 * x55 + 0.5 x54^2 
  + x54 * x55 + 0.5 x55^2 ] <= 2
 e271: [ x40^2 - 2 x40 * x54 + x54^2 ] <= 1
 e272: [ 0.5 x42^2 - x42 * x43 - x42 * x54 + x42 * x55 + 0.5 x43^2 + x43 * x54 - x43 * x55 + 0.5 x54^2 
  - x54 * x55 + 0.5 x55^2 ] <= 2
 e273: [ 0.2 x44^2 - 0.8 x44 * x45 - 0.4 x44 * x54 + 0.8 x44 * x55 + 0.8 x45^2 + 0.8 x45 * x54 - 1.6 x45 * x55 
  + 0.2 x54^2 - 0.8 x54 * x55 + 0.8 x55^2 ] <= 5
 e274: [ 0.1 x46^2 - 0.6 x46 * x47 - 0.2 x46 * x54 + 0.6 x46 * x55 + 0.9 x47^2 + 0.6 x47 * x54 - 1.8 x47 * x55 
  + 0.1 x54^2 - 0.6 x54 * x55 + 0.9 x55^2 ] <= 10
 e275: [ x53^2 - 2 x53 * x55 + x55^2 ] <= 1
 e276: [ 0.6923076923 x10^2 + 0.9230769231 x10 * x11 - 1.384615385 x10 * x56 - 0.9230769231 x10 * x57 
  + 0.3076923077 x11^2 - 0.9230769231 x11 * x56 - 0.6153846154 x11 * x57 + 0.6923076923 x56^2 + 0.9230769231 x56 * x57 
  + 0.3076923077 x57^2 ] <= 13
 e277: [ 0.9 x12^2 + 0.6 x12 * x13 - 1.8 x12 * x56 - 0.6 x12 * x57 + 0.1 x13^2 - 0.6 x13 * x56 - 0.2 x13 * x57 
  + 0.9 x56^2 + 0.6 x56 * x57 + 0.1 x57^2 ] <= 10
 e278: [ 0.9 x16^2 - 0.6 x16 * x17 - 1.8 x16 * x56 + 0.6 x16 * x57 + 0.1 x17^2 + 0.6 x17 * x56 - 0.2 x17 * x57 
  + 0.9 x56^2 - 0.6 x56 * x57 + 0.1 x57^2 ] <= 10
 e279: [ 0.6923076923 x18^2 - 0.9230769231 x18 * x19 - 1.384615385 x18 * x56 + 0.9230769231 x18 * x57 
  + 0.3076923077 x19^2 + 0.9230769231 x19 * x56 - 0.6153846154 x19 * x57 + 0.6923076923 x56^2 - 0.9230769231 x56 * x57 
  + 0.3076923077 x57^2 ] <= 13
 e280: [ 0.8 x26^2 + 0.8 x26 * x27 - 1.6 x26 * x56 - 0.8 x26 * x57 + 0.2 x27^2 - 0.8 x27 * x56 - 0.4 x27 * x57 
  + 0.8 x56^2 + 0.8 x56 * x57 + 0.2 x57^2 ] <= 5
 e281: [ 0.8 x30^2 - 0.8 x30 * x31 - 1.6 x30 * x56 + 0.8 x30 * x57 + 0.2 x31^2 + 0.8 x31 * x56 - 0.4 x31 * x57 
  + 0.8 x56^2 - 0.8 x56 * x57 + 0.2 x57^2 ] <= 5
 e282: [ 0.3076923077 x34^2 - 0.9230769231 x34 * x35 - 0.6153846154 x34 * x56 + 0.9230769231 x34 * x57 
  + 0.6923076923 x35^2 + 0.9230769231 x35 * x56 - 1.384615385 x35 * x57 + 0.3076923077 x56^2 - 0.9230769231 x56 * x57 
  + 0.6923076923 x57^2 ] <= 13
 e283: [ 0.2 x38^2 + 0.8 x38 * x39 - 0.4 x38 * x56 - 0.8 x38 * x57 + 0.8 x39^2 - 0.8 x39 * x56 - 1.6 x39 * x57 
  + 0.2 x56^2 + 0.8 x56 * x57 + 0.8 x57^2 ] <= 5
 e284: [ 0.5 x40^2 + x40 * x41 - x40 * x56 - x40 * x57 + 0.5 x41^2 - x41 * x56 - x41 * x57 + 0.5 x56^2 
  + x56 * x57 + 0.5 x57^2 ] <= 2
 e285: [ x42^2 - 2 x42 * x56 + x56^2 ] <= 1
 e286: [ 0.5 x44^2 - x44 * x45 - x44 * x56 + x44 * x57 + 0.5 x45^2 + x45 * x56 - x45 * x57 + 0.5 x56^2 
  - x56 * x57 + 0.5 x57^2 ] <= 2
 e287: [ 0.2 x46^2 - 0.8 x46 * x47 - 0.4 x46 * x56 + 0.8 x46 * x57 + 0.8 x47^2 + 0.8 x47 * x56 - 1.6 x47 * x57 
  + 0.2 x56^2 - 0.8 x56 * x57 + 0.8 x57^2 ] <= 5
 e288: [ 0.1 x48^2 - 0.6 x48 * x49 - 0.2 x48 * x56 + 0.6 x48 * x57 + 0.9 x49^2 + 0.6 x49 * x56 - 1.8 x49 * x57 
  + 0.1 x56^2 - 0.6 x56 * x57 + 0.9 x57^2 ] <= 10
 e289: [ x53^2 - 2 x53 * x57 + x57^2 ] <= 4
 e290: [ x55^2 - 2 x55 * x57 + x57^2 ] <= 1
 e291: [ 0.6923076923 x12^2 + 0.9230769231 x12 * x13 - 1.384615385 x12 * x58 - 0.9230769231 x12 * x59 
  + 0.3076923077 x13^2 - 0.9230769231 x13 * x58 - 0.6153846154 x13 * x59 + 0.6923076923 x58^2 + 0.9230769231 x58 * x59 
  + 0.3076923077 x59^2 ] <= 13
 e292: [ 0.9 x14^2 + 0.6 x14 * x15 - 1.8 x14 * x58 - 0.6 x14 * x59 + 0.1 x15^2 - 0.6 x15 * x58 - 0.2 x15 * x59 
  + 0.9 x58^2 + 0.6 x58 * x59 + 0.1 x59^2 ] <= 10
 e293: [ 0.9 x18^2 - 0.6 x18 * x19 - 1.8 x18 * x58 + 0.6 x18 * x59 + 0.1 x19^2 + 0.6 x19 * x58 - 0.2 x19 * x59 
  + 0.9 x58^2 - 0.6 x58 * x59 + 0.1 x59^2 ] <= 10
 e294: [ 0.6923076923 x20^2 - 0.9230769231 x20 * x21 - 1.384615385 x20 * x58 + 0.9230769231 x20 * x59 
  + 0.3076923077 x21^2 + 0.9230769231 x21 * x58 - 0.6153846154 x21 * x59 + 0.6923076923 x58^2 - 0.9230769231 x58 * x59 
  + 0.3076923077 x59^2 ] <= 13
 e295: [ 0.3076923077 x24^2 + 0.9230769231 x24 * x25 - 0.6153846154 x24 * x58 - 0.9230769231 x24 * x59 
  + 0.6923076923 x25^2 - 0.9230769231 x25 * x58 - 1.384615385 x25 * x59 + 0.3076923077 x58^2 + 0.9230769231 x58 * x59 
  + 0.6923076923 x59^2 ] <= 13
 e296: [ 0.8 x28^2 + 0.8 x28 * x29 - 1.6 x28 * x58 - 0.8 x28 * x59 + 0.2 x29^2 - 0.8 x29 * x58 - 0.4 x29 * x59 
  + 0.8 x58^2 + 0.8 x58 * x59 + 0.2 x59^2 ] <= 5
 e297: [ 0.8 x32^2 - 0.8 x32 * x33 - 1.6 x32 * x58 + 0.8 x32 * x59 + 0.2 x33^2 + 0.8 x33 * x58 - 0.4 x33 * x59 
  + 0.8 x58^2 - 0.8 x58 * x59 + 0.2 x59^2 ] <= 5
 e298: [ 0.3076923077 x36^2 - 0.9230769231 x36 * x37 - 0.6153846154 x36 * x58 + 0.9230769231 x36 * x59 
  + 0.6923076923 x37^2 + 0.9230769231 x37 * x58 - 1.384615385 x37 * x59 + 0.3076923077 x58^2 - 0.9230769231 x58 * x59 
  + 0.6923076923 x59^2 ] <= 13
 e299: [ 0.1 x38^2 + 0.6 x38 * x39 - 0.2 x38 * x58 - 0.6 x38 * x59 + 0.9 x39^2 - 0.6 x39 * x58 - 1.8 x39 * x59 
  + 0.1 x58^2 + 0.6 x58 * x59 + 0.9 x59^2 ] <= 10
 e300: [ 0.2 x40^2 + 0.8 x40 * x41 - 0.4 x40 * x58 - 0.8 x40 * x59 + 0.8 x41^2 - 0.8 x41 * x58 - 1.6 x41 * x59 
  + 0.2 x58^2 + 0.8 x58 * x59 + 0.8 x59^2 ] <= 5
 e301: [ 0.5 x42^2 + x42 * x43 - x42 * x58 - x42 * x59 + 0.5 x43^2 - x43 * x58 - x43 * x59 + 0.5 x58^2 
  + x58 * x59 + 0.5 x59^2 ] <= 2
 e302: [ x44^2 - 2 x44 * x58 + x58^2 ] <= 1
 e303: [ 0.5 x46^2 - x46 * x47 - x46 * x58 + x46 * x59 + 0.5 x47^2 + x47 * x58 - x47 * x59 + 0.5 x58^2 
  - x58 * x59 + 0.5 x59^2 ] <= 2
 e304: [ 0.2 x48^2 - 0.8 x48 * x49 - 0.4 x48 * x58 + 0.8 x48 * x59 + 0.8 x49^2 + 0.8 x49 * x58 - 1.6 x49 * x59 
  + 0.2 x58^2 - 0.8 x58 * x59 + 0.8 x59^2 ] <= 5
 e305: [ 0.1 x50^2 - 0.6 x50 * x51 - 0.2 x50 * x58 + 0.6 x50 * x59 + 0.9 x51^2 + 0.6 x51 * x58 - 1.8 x51 * x59 
  + 0.1 x58^2 - 0.6 x58 * x59 + 0.9 x59^2 ] <= 10
 e306: [ x53^2 - 2 x53 * x59 + x59^2 ] <= 9
 e307: [ x55^2 - 2 x55 * x59 + x59^2 ] <= 4
 e308: [ x57^2 - 2 x57 * x59 + x59^2 ] <= 1
 e309: [ 0.6923076923 x14^2 + 0.9230769231 x14 * x15 - 1.384615385 x14 * x60 - 0.9230769231 x14 * x61 
  + 0.3076923077 x15^2 - 0.9230769231 x15 * x60 - 0.6153846154 x15 * x61 + 0.6923076923 x60^2 + 0.9230769231 x60 * x61 
  + 0.3076923077 x61^2 ] <= 13
 e310: [ 0.9 x16^2 + 0.6 x16 * x17 - 1.8 x16 * x60 - 0.6 x16 * x61 + 0.1 x17^2 - 0.6 x17 * x60 - 0.2 x17 * x61 
  + 0.9 x60^2 + 0.6 x60 * x61 + 0.1 x61^2 ] <= 10
 e311: [ 0.9 x20^2 - 0.6 x20 * x21 - 1.8 x20 * x60 + 0.6 x20 * x61 + 0.1 x21^2 + 0.6 x21 * x60 - 0.2 x21 * x61 
  + 0.9 x60^2 - 0.6 x60 * x61 + 0.1 x61^2 ] <= 10
 e312: [ 0.6923076923 x22^2 - 0.9230769231 x22 * x23 - 1.384615385 x22 * x60 + 0.9230769231 x22 * x61 
  + 0.3076923077 x23^2 + 0.9230769231 x23 * x60 - 0.6153846154 x23 * x61 + 0.6923076923 x60^2 - 0.9230769231 x60 * x61 
  + 0.3076923077 x61^2 ] <= 13
 e313: [ 0.3076923077 x26^2 + 0.9230769231 x26 * x27 - 0.6153846154 x26 * x60 - 0.9230769231 x26 * x61 
  + 0.6923076923 x27^2 - 0.9230769231 x27 * x60 - 1.384615385 x27 * x61 + 0.3076923077 x60^2 + 0.9230769231 x60 * x61 
  + 0.6923076923 x61^2 ] <= 13
 e314: [ 0.8 x30^2 + 0.8 x30 * x31 - 1.6 x30 * x60 - 0.8 x30 * x61 + 0.2 x31^2 - 0.8 x31 * x60 - 0.4 x31 * x61 
  + 0.8 x60^2 + 0.8 x60 * x61 + 0.2 x61^2 ] <= 5
 e315: [ 0.8 x34^2 - 0.8 x34 * x35 - 1.6 x34 * x60 + 0.8 x34 * x61 + 0.2 x35^2 + 0.8 x35 * x60 - 0.4 x35 * x61 
  + 0.8 x60^2 - 0.8 x60 * x61 + 0.2 x61^2 ] <= 5
 e316: [ 0.1 x40^2 + 0.6 x40 * x41 - 0.2 x40 * x60 - 0.6 x40 * x61 + 0.9 x41^2 - 0.6 x41 * x60 - 1.8 x41 * x61 
  + 0.1 x60^2 + 0.6 x60 * x61 + 0.9 x61^2 ] <= 10
 e317: [ 0.2 x42^2 + 0.8 x42 * x43 - 0.4 x42 * x60 - 0.8 x42 * x61 + 0.8 x43^2 - 0.8 x43 * x60 - 1.6 x43 * x61 
  + 0.2 x60^2 + 0.8 x60 * x61 + 0.8 x61^2 ] <= 5
 e318: [ 0.5 x44^2 + x44 * x45 - x44 * x60 - x44 * x61 + 0.5 x45^2 - x45 * x60 - x45 * x61 + 0.5 x60^2 
  + x60 * x61 + 0.5 x61^2 ] <= 2
 e319: [ x46^2 - 2 x46 * x60 + x60^2 ] <= 1
 e320: [ 0.5 x48^2 - x48 * x49 - x48 * x60 + x48 * x61 + 0.5 x49^2 + x49 * x60 - x49 * x61 + 0.5 x60^2 
  - x60 * x61 + 0.5 x61^2 ] <= 2
 e321: [ 0.2 x50^2 - 0.8 x50 * x51 - 0.4 x50 * x60 + 0.8 x50 * x61 + 0.8 x51^2 + 0.8 x51 * x60 - 1.6 x51 * x61 
  + 0.2 x60^2 - 0.8 x60 * x61 + 0.8 x61^2 ] <= 5
 e322: [ x53^2 - 2 x53 * x61 + x61^2 ] <= 16
 e323: [ x55^2 - 2 x55 * x61 + x61^2 ] <= 9
 e324: [ x57^2 - 2 x57 * x61 + x61^2 ] <= 4
 e325: [ x59^2 - 2 x59 * x61 + x61^2 ] <= 1
 e326: [ 0.6923076923 x16^2 + 0.9230769231 x16 * x17 - 1.384615385 x16 * x62 - 0.9230769231 x16 * x63 
  + 0.3076923077 x17^2 - 0.9230769231 x17 * x62 - 0.6153846154 x17 * x63 + 0.6923076923 x62^2 + 0.9230769231 x62 * x63 
  + 0.3076923077 x63^2 ] <= 13
 e327: [ 0.9 x18^2 + 0.6 x18 * x19 - 1.8 x18 * x62 - 0.6 x18 * x63 + 0.1 x19^2 - 0.6 x19 * x62 - 0.2 x19 * x63 
  + 0.9 x62^2 + 0.6 x62 * x63 + 0.1 x63^2 ] <= 10
 e328: [ 0.9 x22^2 - 0.6 x22 * x23 - 1.8 x22 * x62 + 0.6 x22 * x63 + 0.1 x23^2 + 0.6 x23 * x62 - 0.2 x23 * x63 
  + 0.9 x62^2 - 0.6 x62 * x63 + 0.1 x63^2 ] <= 10
 e329: [ 0.3076923077 x28^2 + 0.9230769231 x28 * x29 - 0.6153846154 x28 * x62 - 0.9230769231 x28 * x63 
  + 0.6923076923 x29^2 - 0.9230769231 x29 * x62 - 1.384615385 x29 * x63 + 0.3076923077 x62^2 + 0.9230769231 x62 * x63 
  + 0.6923076923 x63^2 ] <= 13
 e330: [ 0.8 x32^2 + 0.8 x32 * x33 - 1.6 x32 * x62 - 0.8 x32 * x63 + 0.2 x33^2 - 0.8 x33 * x62 - 0.4 x33 * x63 
  + 0.8 x62^2 + 0.8 x62 * x63 + 0.2 x63^2 ] <= 5
 e331: [ 0.8 x36^2 - 0.8 x36 * x37 - 1.6 x36 * x62 + 0.8 x36 * x63 + 0.2 x37^2 + 0.8 x37 * x62 - 0.4 x37 * x63 
  + 0.8 x62^2 - 0.8 x62 * x63 + 0.2 x63^2 ] <= 5
 e332: [ 0.1 x42^2 + 0.6 x42 * x43 - 0.2 x42 * x62 - 0.6 x42 * x63 + 0.9 x43^2 - 0.6 x43 * x62 - 1.8 x43 * x63 
  + 0.1 x62^2 + 0.6 x62 * x63 + 0.9 x63^2 ] <= 10
 e333: [ 0.2 x44^2 + 0.8 x44 * x45 - 0.4 x44 * x62 - 0.8 x44 * x63 + 0.8 x45^2 - 0.8 x45 * x62 - 1.6 x45 * x63 
  + 0.2 x62^2 + 0.8 x62 * x63 + 0.8 x63^2 ] <= 5
 e334: [ 0.5 x46^2 + x46 * x47 - x46 * x62 - x46 * x63 + 0.5 x47^2 - x47 * x62 - x47 * x63 + 0.5 x62^2 
  + x62 * x63 + 0.5 x63^2 ] <= 2
 e335: [ x48^2 - 2 x48 * x62 + x62^2 ] <= 1
 e336: [ 0.5 x50^2 - x50 * x51 - x50 * x62 + x50 * x63 + 0.5 x51^2 + x51 * x62 - x51 * x63 + 0.5 x62^2 
  - x62 * x63 + 0.5 x63^2 ] <= 2
 e337: [ x53^2 - 2 x53 * x63 + x63^2 ] <= 25
 e338: [ x55^2 - 2 x55 * x63 + x63^2 ] <= 16
 e339: [ x57^2 - 2 x57 * x63 + x63^2 ] <= 9
 e340: [ x59^2 - 2 x59 * x63 + x63^2 ] <= 4
 e341: [ x61^2 - 2 x61 * x63 + x63^2 ] <= 1
 e342: [ 0.6923076923 x18^2 + 0.9230769231 x18 * x19 - 1.384615385 x18 * x64 - 0.9230769231 x18 * x65 
  + 0.3076923077 x19^2 - 0.9230769231 x19 * x64 - 0.6153846154 x19 * x65 + 0.6923076923 x64^2 + 0.9230769231 x64 * x65 
  + 0.3076923077 x65^2 ] <= 13
 e343: [ 0.9 x20^2 + 0.6 x20 * x21 - 1.8 x20 * x64 - 0.6 x20 * x65 + 0.1 x21^2 - 0.6 x21 * x64 - 0.2 x21 * x65 
  + 0.9 x64^2 + 0.6 x64 * x65 + 0.1 x65^2 ] <= 10
 e344: [ 0.3076923077 x30^2 + 0.9230769231 x30 * x31 - 0.6153846154 x30 * x64 - 0.9230769231 x30 * x65 
  + 0.6923076923 x31^2 - 0.9230769231 x31 * x64 - 1.384615385 x31 * x65 + 0.3076923077 x64^2 + 0.9230769231 x64 * x65 
  + 0.6923076923 x65^2 ] <= 13
 e345: [ 0.8 x34^2 + 0.8 x34 * x35 - 1.6 x34 * x64 - 0.8 x34 * x65 + 0.2 x35^2 - 0.8 x35 * x64 - 0.4 x35 * x65 
  + 0.8 x64^2 + 0.8 x64 * x65 + 0.2 x65^2 ] <= 5
 e346: [ 0.1 x44^2 + 0.6 x44 * x45 - 0.2 x44 * x64 - 0.6 x44 * x65 + 0.9 x45^2 - 0.6 x45 * x64 - 1.8 x45 * x65 
  + 0.1 x64^2 + 0.6 x64 * x65 + 0.9 x65^2 ] <= 10
 e347: [ 0.2 x46^2 + 0.8 x46 * x47 - 0.4 x46 * x64 - 0.8 x46 * x65 + 0.8 x47^2 - 0.8 x47 * x64 - 1.6 x47 * x65 
  + 0.2 x64^2 + 0.8 x64 * x65 + 0.8 x65^2 ] <= 5
 e348: [ 0.5 x48^2 + x48 * x49 - x48 * x64 - x48 * x65 + 0.5 x49^2 - x49 * x64 - x49 * x65 + 0.5 x64^2 
  + x64 * x65 + 0.5 x65^2 ] <= 2
 e349: [ x50^2 - 2 x50 * x64 + x64^2 ] <= 1
 e350: [ x53^2 - 2 x53 * x65 + x65^2 ] <= 36
 e351: [ x55^2 - 2 x55 * x65 + x65^2 ] <= 25
 e352: [ x57^2 - 2 x57 * x65 + x65^2 ] <= 16
 e353: [ x59^2 - 2 x59 * x65 + x65^2 ] <= 9
 e354: [ x61^2 - 2 x61 * x65 + x65^2 ] <= 4
 e355: [ x63^2 - 2 x63 * x65 + x65^2 ] <= 1
 e356: [ 0.9 x26^2 - 0.6 x26 * x27 - 1.8 x26 * x66 + 0.6 x26 * x67 + 0.1 x27^2 + 0.6 x27 * x66 - 0.2 x27 * x67 
  + 0.9 x66^2 - 0.6 x66 * x67 + 0.1 x67^2 ] <= 10
 e357: [ 0.6923076923 x28^2 - 0.9230769231 x28 * x29 - 1.384615385 x28 * x66 + 0.9230769231 x28 * x67 
  + 0.3076923077 x29^2 + 0.9230769231 x29 * x66 - 0.6153846154 x29 * x67 + 0.6923076923 x66^2 - 0.9230769231 x66 * x67 
  + 0.3076923077 x67^2 ] <= 13
 e358: [ 0.8 x40^2 - 0.8 x40 * x41 - 1.6 x40 * x66 + 0.8 x40 * x67 + 0.2 x41^2 + 0.8 x41 * x66 - 0.4 x41 * x67 
  + 0.8 x66^2 - 0.8 x66 * x67 + 0.2 x67^2 ] <= 5
 e359: [ 0.3076923077 x44^2 - 0.9230769231 x44 * x45 - 0.6153846154 x44 * x66 + 0.9230769231 x44 * x67 
  + 0.6923076923 x45^2 + 0.9230769231 x45 * x66 - 1.384615385 x45 * x67 + 0.3076923077 x66^2 - 0.9230769231 x66 * x67 
  + 0.6923076923 x67^2 ] <= 13
 e360: [ x52^2 - 2 x52 * x66 + x66^2 ] <= 1
 e361: [ 0.5 x54^2 - x54 * x55 - x54 * x66 + x54 * x67 + 0.5 x55^2 + x55 * x66 - x55 * x67 + 0.5 x66^2 
  - x66 * x67 + 0.5 x67^2 ] <= 2
 e362: [ 0.2 x56^2 - 0.8 x56 * x57 - 0.4 x56 * x66 + 0.8 x56 * x67 + 0.8 x57^2 + 0.8 x57 * x66 - 1.6 x57 * x67 
  + 0.2 x66^2 - 0.8 x66 * x67 + 0.8 x67^2 ] <= 5
 e363: [ 0.1 x58^2 - 0.6 x58 * x59 - 0.2 x58 * x66 + 0.6 x58 * x67 + 0.9 x59^2 + 0.6 x59 * x66 - 1.8 x59 * x67 
  + 0.1 x66^2 - 0.6 x66 * x67 + 0.9 x67^2 ] <= 10
 e364: [ 0.9 x24^2 + 0.6 x24 * x25 - 1.8 x24 * x68 - 0.6 x24 * x69 + 0.1 x25^2 - 0.6 x25 * x68 - 0.2 x25 * x69 
  + 0.9 x68^2 + 0.6 x68 * x69 + 0.1 x69^2 ] <= 10
 e365: [ 0.9 x28^2 - 0.6 x28 * x29 - 1.8 x28 * x68 + 0.6 x28 * x69 + 0.1 x29^2 + 0.6 x29 * x68 - 0.2 x29 * x69 
  + 0.9 x68^2 - 0.6 x68 * x69 + 0.1 x69^2 ] <= 10
 e366: [ 0.6923076923 x30^2 - 0.9230769231 x30 * x31 - 1.384615385 x30 * x68 + 0.9230769231 x30 * x69 
  + 0.3076923077 x31^2 + 0.9230769231 x31 * x68 - 0.6153846154 x31 * x69 + 0.6923076923 x68^2 - 0.9230769231 x68 * x69 
  + 0.3076923077 x69^2 ] <= 13
 e367: [ 0.8 x38^2 + 0.8 x38 * x39 - 1.6 x38 * x68 - 0.8 x38 * x69 + 0.2 x39^2 - 0.8 x39 * x68 - 0.4 x39 * x69 
  + 0.8 x68^2 + 0.8 x68 * x69 + 0.2 x69^2 ] <= 5
 e368: [ 0.8 x42^2 - 0.8 x42 * x43 - 1.6 x42 * x68 + 0.8 x42 * x69 + 0.2 x43^2 + 0.8 x43 * x68 - 0.4 x43 * x69 
  + 0.8 x68^2 - 0.8 x68 * x69 + 0.2 x69^2 ] <= 5
 e369: [ 0.3076923077 x46^2 - 0.9230769231 x46 * x47 - 0.6153846154 x46 * x68 + 0.9230769231 x46 * x69 
  + 0.6923076923 x47^2 + 0.9230769231 x47 * x68 - 1.384615385 x47 * x69 + 0.3076923077 x68^2 - 0.9230769231 x68 * x69 
  + 0.6923076923 x69^2 ] <= 13
 e370: [ 0.5 x52^2 + x52 * x53 - x52 * x68 - x52 * x69 + 0.5 x53^2 - x53 * x68 - x53 * x69 + 0.5 x68^2 
  + x68 * x69 + 0.5 x69^2 ] <= 2
 e371: [ x54^2 - 2 x54 * x68 + x68^2 ] <= 1
 e372: [ 0.5 x56^2 - x56 * x57 - x56 * x68 + x56 * x69 + 0.5 x57^2 + x57 * x68 - x57 * x69 + 0.5 x68^2 
  - x68 * x69 + 0.5 x69^2 ] <= 2
 e373: [ 0.2 x58^2 - 0.8 x58 * x59 - 0.4 x58 * x68 + 0.8 x58 * x69 + 0.8 x59^2 + 0.8 x59 * x68 - 1.6 x59 * x69 
  + 0.2 x68^2 - 0.8 x68 * x69 + 0.8 x69^2 ] <= 5
 e374: [ 0.1 x60^2 - 0.6 x60 * x61 - 0.2 x60 * x68 + 0.6 x60 * x69 + 0.9 x61^2 + 0.6 x61 * x68 - 1.8 x61 * x69 
  + 0.1 x68^2 - 0.6 x68 * x69 + 0.9 x69^2 ] <= 10
 e375: [ x67^2 - 2 x67 * x69 + x69^2 ] <= 1
 e376: [ 0.6923076923 x24^2 + 0.9230769231 x24 * x25 - 1.384615385 x24 * x70 - 0.9230769231 x24 * x71 
  + 0.3076923077 x25^2 - 0.9230769231 x25 * x70 - 0.6153846154 x25 * x71 + 0.6923076923 x70^2 + 0.9230769231 x70 * x71 
  + 0.3076923077 x71^2 ] <= 13
 e377: [ 0.9 x26^2 + 0.6 x26 * x27 - 1.8 x26 * x70 - 0.6 x26 * x71 + 0.1 x27^2 - 0.6 x27 * x70 - 0.2 x27 * x71 
  + 0.9 x70^2 + 0.6 x70 * x71 + 0.1 x71^2 ] <= 10
 e378: [ 0.9 x30^2 - 0.6 x30 * x31 - 1.8 x30 * x70 + 0.6 x30 * x71 + 0.1 x31^2 + 0.6 x31 * x70 - 0.2 x31 * x71 
  + 0.9 x70^2 - 0.6 x70 * x71 + 0.1 x71^2 ] <= 10
 e379: [ 0.6923076923 x32^2 - 0.9230769231 x32 * x33 - 1.384615385 x32 * x70 + 0.9230769231 x32 * x71 
  + 0.3076923077 x33^2 + 0.9230769231 x33 * x70 - 0.6153846154 x33 * x71 + 0.6923076923 x70^2 - 0.9230769231 x70 * x71 
  + 0.3076923077 x71^2 ] <= 13
 e380: [ 0.8 x40^2 + 0.8 x40 * x41 - 1.6 x40 * x70 - 0.8 x40 * x71 + 0.2 x41^2 - 0.8 x41 * x70 - 0.4 x41 * x71 
  + 0.8 x70^2 + 0.8 x70 * x71 + 0.2 x71^2 ] <= 5
 e381: [ 0.8 x44^2 - 0.8 x44 * x45 - 1.6 x44 * x70 + 0.8 x44 * x71 + 0.2 x45^2 + 0.8 x45 * x70 - 0.4 x45 * x71 
  + 0.8 x70^2 - 0.8 x70 * x71 + 0.2 x71^2 ] <= 5
 e382: [ 0.3076923077 x48^2 - 0.9230769231 x48 * x49 - 0.6153846154 x48 * x70 + 0.9230769231 x48 * x71 
  + 0.6923076923 x49^2 + 0.9230769231 x49 * x70 - 1.384615385 x49 * x71 + 0.3076923077 x70^2 - 0.9230769231 x70 * x71 
  + 0.6923076923 x71^2 ] <= 13
 e383: [ 0.2 x52^2 + 0.8 x52 * x53 - 0.4 x52 * x70 - 0.8 x52 * x71 + 0.8 x53^2 - 0.8 x53 * x70 - 1.6 x53 * x71 
  + 0.2 x70^2 + 0.8 x70 * x71 + 0.8 x71^2 ] <= 5
 e384: [ 0.5 x54^2 + x54 * x55 - x54 * x70 - x54 * x71 + 0.5 x55^2 - x55 * x70 - x55 * x71 + 0.5 x70^2 
  + x70 * x71 + 0.5 x71^2 ] <= 2
 e385: [ x56^2 - 2 x56 * x70 + x70^2 ] <= 1
 e386: [ 0.5 x58^2 - x58 * x59 - x58 * x70 + x58 * x71 + 0.5 x59^2 + x59 * x70 - x59 * x71 + 0.5 x70^2 
  - x70 * x71 + 0.5 x71^2 ] <= 2
 e387: [ 0.2 x60^2 - 0.8 x60 * x61 - 0.4 x60 * x70 + 0.8 x60 * x71 + 0.8 x61^2 + 0.8 x61 * x70 - 1.6 x61 * x71 
  + 0.2 x70^2 - 0.8 x70 * x71 + 0.8 x71^2 ] <= 5
 e388: [ 0.1 x62^2 - 0.6 x62 * x63 - 0.2 x62 * x70 + 0.6 x62 * x71 + 0.9 x63^2 + 0.6 x63 * x70 - 1.8 x63 * x71 
  + 0.1 x70^2 - 0.6 x70 * x71 + 0.9 x71^2 ] <= 10
 e389: [ x67^2 - 2 x67 * x71 + x71^2 ] <= 4
 e390: [ x69^2 - 2 x69 * x71 + x71^2 ] <= 1
 e391: [ 0.6923076923 x26^2 + 0.9230769231 x26 * x27 - 1.384615385 x26 * x72 - 0.9230769231 x26 * x73 
  + 0.3076923077 x27^2 - 0.9230769231 x27 * x72 - 0.6153846154 x27 * x73 + 0.6923076923 x72^2 + 0.9230769231 x72 * x73 
  + 0.3076923077 x73^2 ] <= 13
 e392: [ 0.9 x28^2 + 0.6 x28 * x29 - 1.8 x28 * x72 - 0.6 x28 * x73 + 0.1 x29^2 - 0.6 x29 * x72 - 0.2 x29 * x73 
  + 0.9 x72^2 + 0.6 x72 * x73 + 0.1 x73^2 ] <= 10
 e393: [ 0.9 x32^2 - 0.6 x32 * x33 - 1.8 x32 * x72 + 0.6 x32 * x73 + 0.1 x33^2 + 0.6 x33 * x72 - 0.2 x33 * x73 
  + 0.9 x72^2 - 0.6 x72 * x73 + 0.1 x73^2 ] <= 10
 e394: [ 0.6923076923 x34^2 - 0.9230769231 x34 * x35 - 1.384615385 x34 * x72 + 0.9230769231 x34 * x73 
  + 0.3076923077 x35^2 + 0.9230769231 x35 * x72 - 0.6153846154 x35 * x73 + 0.6923076923 x72^2 - 0.9230769231 x72 * x73 
  + 0.3076923077 x73^2 ] <= 13
 e395: [ 0.3076923077 x38^2 + 0.9230769231 x38 * x39 - 0.6153846154 x38 * x72 - 0.9230769231 x38 * x73 
  + 0.6923076923 x39^2 - 0.9230769231 x39 * x72 - 1.384615385 x39 * x73 + 0.3076923077 x72^2 + 0.9230769231 x72 * x73 
  + 0.6923076923 x73^2 ] <= 13
 e396: [ 0.8 x42^2 + 0.8 x42 * x43 - 1.6 x42 * x72 - 0.8 x42 * x73 + 0.2 x43^2 - 0.8 x43 * x72 - 0.4 x43 * x73 
  + 0.8 x72^2 + 0.8 x72 * x73 + 0.2 x73^2 ] <= 5
 e397: [ 0.8 x46^2 - 0.8 x46 * x47 - 1.6 x46 * x72 + 0.8 x46 * x73 + 0.2 x47^2 + 0.8 x47 * x72 - 0.4 x47 * x73 
  + 0.8 x72^2 - 0.8 x72 * x73 + 0.2 x73^2 ] <= 5
 e398: [ 0.3076923077 x50^2 - 0.9230769231 x50 * x51 - 0.6153846154 x50 * x72 + 0.9230769231 x50 * x73 
  + 0.6923076923 x51^2 + 0.9230769231 x51 * x72 - 1.384615385 x51 * x73 + 0.3076923077 x72^2 - 0.9230769231 x72 * x73 
  + 0.6923076923 x73^2 ] <= 13
 e399: [ 0.1 x52^2 + 0.6 x52 * x53 - 0.2 x52 * x72 - 0.6 x52 * x73 + 0.9 x53^2 - 0.6 x53 * x72 - 1.8 x53 * x73 
  + 0.1 x72^2 + 0.6 x72 * x73 + 0.9 x73^2 ] <= 10
 e400: [ 0.2 x54^2 + 0.8 x54 * x55 - 0.4 x54 * x72 - 0.8 x54 * x73 + 0.8 x55^2 - 0.8 x55 * x72 - 1.6 x55 * x73 
  + 0.2 x72^2 + 0.8 x72 * x73 + 0.8 x73^2 ] <= 5
 e401: [ 0.5 x56^2 + x56 * x57 - x56 * x72 - x56 * x73 + 0.5 x57^2 - x57 * x72 - x57 * x73 + 0.5 x72^2 
  + x72 * x73 + 0.5 x73^2 ] <= 2
 e402: [ x58^2 - 2 x58 * x72 + x72^2 ] <= 1
 e403: [ 0.5 x60^2 - x60 * x61 - x60 * x72 + x60 * x73 + 0.5 x61^2 + x61 * x72 - x61 * x73 + 0.5 x72^2 
  - x72 * x73 + 0.5 x73^2 ] <= 2
 e404: [ 0.2 x62^2 - 0.8 x62 * x63 - 0.4 x62 * x72 + 0.8 x62 * x73 + 0.8 x63^2 + 0.8 x63 * x72 - 1.6 x63 * x73 
  + 0.2 x72^2 - 0.8 x72 * x73 + 0.8 x73^2 ] <= 5
 e405: [ 0.1 x64^2 - 0.6 x64 * x65 - 0.2 x64 * x72 + 0.6 x64 * x73 + 0.9 x65^2 + 0.6 x65 * x72 - 1.8 x65 * x73 
  + 0.1 x72^2 - 0.6 x72 * x73 + 0.9 x73^2 ] <= 10
 e406: [ x67^2 - 2 x67 * x73 + x73^2 ] <= 9
 e407: [ x69^2 - 2 x69 * x73 + x73^2 ] <= 4
 e408: [ x71^2 - 2 x71 * x73 + x73^2 ] <= 1
 e409: [ 0.6923076923 x28^2 + 0.9230769231 x28 * x29 - 1.384615385 x28 * x74 - 0.9230769231 x28 * x75 
  + 0.3076923077 x29^2 - 0.9230769231 x29 * x74 - 0.6153846154 x29 * x75 + 0.6923076923 x74^2 + 0.9230769231 x74 * x75 
  + 0.3076923077 x75^2 ] <= 13
 e410: [ 0.9 x30^2 + 0.6 x30 * x31 - 1.8 x30 * x74 - 0.6 x30 * x75 + 0.1 x31^2 - 0.6 x31 * x74 - 0.2 x31 * x75 
  + 0.9 x74^2 + 0.6 x74 * x75 + 0.1 x75^2 ] <= 10
 e411: [ 0.9 x34^2 - 0.6 x34 * x35 - 1.8 x34 * x74 + 0.6 x34 * x75 + 0.1 x35^2 + 0.6 x35 * x74 - 0.2 x35 * x75 
  + 0.9 x74^2 - 0.6 x74 * x75 + 0.1 x75^2 ] <= 10
 e412: [ 0.6923076923 x36^2 - 0.9230769231 x36 * x37 - 1.384615385 x36 * x74 + 0.9230769231 x36 * x75 
  + 0.3076923077 x37^2 + 0.9230769231 x37 * x74 - 0.6153846154 x37 * x75 + 0.6923076923 x74^2 - 0.9230769231 x74 * x75 
  + 0.3076923077 x75^2 ] <= 13
 e413: [ 0.3076923077 x40^2 + 0.9230769231 x40 * x41 - 0.6153846154 x40 * x74 - 0.9230769231 x40 * x75 
  + 0.6923076923 x41^2 - 0.9230769231 x41 * x74 - 1.384615385 x41 * x75 + 0.3076923077 x74^2 + 0.9230769231 x74 * x75 
  + 0.6923076923 x75^2 ] <= 13
 e414: [ 0.8 x44^2 + 0.8 x44 * x45 - 1.6 x44 * x74 - 0.8 x44 * x75 + 0.2 x45^2 - 0.8 x45 * x74 - 0.4 x45 * x75 
  + 0.8 x74^2 + 0.8 x74 * x75 + 0.2 x75^2 ] <= 5
 e415: [ 0.8 x48^2 - 0.8 x48 * x49 - 1.6 x48 * x74 + 0.8 x48 * x75 + 0.2 x49^2 + 0.8 x49 * x74 - 0.4 x49 * x75 
  + 0.8 x74^2 - 0.8 x74 * x75 + 0.2 x75^2 ] <= 5
 e416: [ 0.1 x54^2 + 0.6 x54 * x55 - 0.2 x54 * x74 - 0.6 x54 * x75 + 0.9 x55^2 - 0.6 x55 * x74 - 1.8 x55 * x75 
  + 0.1 x74^2 + 0.6 x74 * x75 + 0.9 x75^2 ] <= 10
 e417: [ 0.2 x56^2 + 0.8 x56 * x57 - 0.4 x56 * x74 - 0.8 x56 * x75 + 0.8 x57^2 - 0.8 x57 * x74 - 1.6 x57 * x75 
  + 0.2 x74^2 + 0.8 x74 * x75 + 0.8 x75^2 ] <= 5
 e418: [ 0.5 x58^2 + x58 * x59 - x58 * x74 - x58 * x75 + 0.5 x59^2 - x59 * x74 - x59 * x75 + 0.5 x74^2 
  + x74 * x75 + 0.5 x75^2 ] <= 2
 e419: [ x60^2 - 2 x60 * x74 + x74^2 ] <= 1
 e420: [ 0.5 x62^2 - x62 * x63 - x62 * x74 + x62 * x75 + 0.5 x63^2 + x63 * x74 - x63 * x75 + 0.5 x74^2 
  - x74 * x75 + 0.5 x75^2 ] <= 2
 e421: [ 0.2 x64^2 - 0.8 x64 * x65 - 0.4 x64 * x74 + 0.8 x64 * x75 + 0.8 x65^2 + 0.8 x65 * x74 - 1.6 x65 * x75 
  + 0.2 x74^2 - 0.8 x74 * x75 + 0.8 x75^2 ] <= 5
 e422: [ x67^2 - 2 x67 * x75 + x75^2 ] <= 16
 e423: [ x69^2 - 2 x69 * x75 + x75^2 ] <= 9
 e424: [ x71^2 - 2 x71 * x75 + x75^2 ] <= 4
 e425: [ x73^2 - 2 x73 * x75 + x75^2 ] <= 1
 e426: [ 0.6923076923 x30^2 + 0.9230769231 x30 * x31 - 1.384615385 x30 * x76 - 0.9230769231 x30 * x77 
  + 0.3076923077 x31^2 - 0.9230769231 x31 * x76 - 0.6153846154 x31 * x77 + 0.6923076923 x76^2 + 0.9230769231 x76 * x77 
  + 0.3076923077 x77^2 ] <= 13
 e427: [ 0.9 x32^2 + 0.6 x32 * x33 - 1.8 x32 * x76 - 0.6 x32 * x77 + 0.1 x33^2 - 0.6 x33 * x76 - 0.2 x33 * x77 
  + 0.9 x76^2 + 0.6 x76 * x77 + 0.1 x77^2 ] <= 10
 e428: [ 0.9 x36^2 - 0.6 x36 * x37 - 1.8 x36 * x76 + 0.6 x36 * x77 + 0.1 x37^2 + 0.6 x37 * x76 - 0.2 x37 * x77 
  + 0.9 x76^2 - 0.6 x76 * x77 + 0.1 x77^2 ] <= 10
 e429: [ 0.3076923077 x42^2 + 0.9230769231 x42 * x43 - 0.6153846154 x42 * x76 - 0.9230769231 x42 * x77 
  + 0.6923076923 x43^2 - 0.9230769231 x43 * x76 - 1.384615385 x43 * x77 + 0.3076923077 x76^2 + 0.9230769231 x76 * x77 
  + 0.6923076923 x77^2 ] <= 13
 e430: [ 0.8 x46^2 + 0.8 x46 * x47 - 1.6 x46 * x76 - 0.8 x46 * x77 + 0.2 x47^2 - 0.8 x47 * x76 - 0.4 x47 * x77 
  + 0.8 x76^2 + 0.8 x76 * x77 + 0.2 x77^2 ] <= 5
 e431: [ 0.8 x50^2 - 0.8 x50 * x51 - 1.6 x50 * x76 + 0.8 x50 * x77 + 0.2 x51^2 + 0.8 x51 * x76 - 0.4 x51 * x77 
  + 0.8 x76^2 - 0.8 x76 * x77 + 0.2 x77^2 ] <= 5
 e432: [ 0.1 x56^2 + 0.6 x56 * x57 - 0.2 x56 * x76 - 0.6 x56 * x77 + 0.9 x57^2 - 0.6 x57 * x76 - 1.8 x57 * x77 
  + 0.1 x76^2 + 0.6 x76 * x77 + 0.9 x77^2 ] <= 10
 e433: [ 0.2 x58^2 + 0.8 x58 * x59 - 0.4 x58 * x76 - 0.8 x58 * x77 + 0.8 x59^2 - 0.8 x59 * x76 - 1.6 x59 * x77 
  + 0.2 x76^2 + 0.8 x76 * x77 + 0.8 x77^2 ] <= 5
 e434: [ 0.5 x60^2 + x60 * x61 - x60 * x76 - x60 * x77 + 0.5 x61^2 - x61 * x76 - x61 * x77 + 0.5 x76^2 
  + x76 * x77 + 0.5 x77^2 ] <= 2
 e435: [ x62^2 - 2 x62 * x76 + x76^2 ] <= 1
 e436: [ 0.5 x64^2 - x64 * x65 - x64 * x76 + x64 * x77 + 0.5 x65^2 + x65 * x76 - x65 * x77 + 0.5 x76^2 
  - x76 * x77 + 0.5 x77^2 ] <= 2
 e437: [ x67^2 - 2 x67 * x77 + x77^2 ] <= 25
 e438: [ x69^2 - 2 x69 * x77 + x77^2 ] <= 16
 e439: [ x71^2 - 2 x71 * x77 + x77^2 ] <= 9
 e440: [ x73^2 - 2 x73 * x77 + x77^2 ] <= 4
 e441: [ x75^2 - 2 x75 * x77 + x77^2 ] <= 1
 e442: [ 0.6923076923 x32^2 + 0.9230769231 x32 * x33 - 1.384615385 x32 * x78 - 0.9230769231 x32 * x79 
  + 0.3076923077 x33^2 - 0.9230769231 x33 * x78 - 0.6153846154 x33 * x79 + 0.6923076923 x78^2 + 0.9230769231 x78 * x79 
  + 0.3076923077 x79^2 ] <= 13
 e443: [ 0.9 x34^2 + 0.6 x34 * x35 - 1.8 x34 * x78 - 0.6 x34 * x79 + 0.1 x35^2 - 0.6 x35 * x78 - 0.2 x35 * x79 
  + 0.9 x78^2 + 0.6 x78 * x79 + 0.1 x79^2 ] <= 10
 e444: [ 0.3076923077 x44^2 + 0.9230769231 x44 * x45 - 0.6153846154 x44 * x78 - 0.9230769231 x44 * x79 
  + 0.6923076923 x45^2 - 0.9230769231 x45 * x78 - 1.384615385 x45 * x79 + 0.3076923077 x78^2 + 0.9230769231 x78 * x79 
  + 0.6923076923 x79^2 ] <= 13
 e445: [ 0.8 x48^2 + 0.8 x48 * x49 - 1.6 x48 * x78 - 0.8 x48 * x79 + 0.2 x49^2 - 0.8 x49 * x78 - 0.4 x49 * x79 
  + 0.8 x78^2 + 0.8 x78 * x79 + 0.2 x79^2 ] <= 5
 e446: [ 0.1 x58^2 + 0.6 x58 * x59 - 0.2 x58 * x78 - 0.6 x58 * x79 + 0.9 x59^2 - 0.6 x59 * x78 - 1.8 x59 * x79 
  + 0.1 x78^2 + 0.6 x78 * x79 + 0.9 x79^2 ] <= 10
 e447: [ 0.2 x60^2 + 0.8 x60 * x61 - 0.4 x60 * x78 - 0.8 x60 * x79 + 0.8 x61^2 - 0.8 x61 * x78 - 1.6 x61 * x79 
  + 0.2 x78^2 + 0.8 x78 * x79 + 0.8 x79^2 ] <= 5
 e448: [ 0.5 x62^2 + x62 * x63 - x62 * x78 - x62 * x79 + 0.5 x63^2 - x63 * x78 - x63 * x79 + 0.5 x78^2 
  + x78 * x79 + 0.5 x79^2 ] <= 2
 e449: [ x64^2 - 2 x64 * x78 + x78^2 ] <= 1
 e450: [ x67^2 - 2 x67 * x79 + x79^2 ] <= 36
 e451: [ x69^2 - 2 x69 * x79 + x79^2 ] <= 25
 e452: [ x71^2 - 2 x71 * x79 + x79^2 ] <= 16
 e453: [ x73^2 - 2 x73 * x79 + x79^2 ] <= 9
 e454: [ x75^2 - 2 x75 * x79 + x79^2 ] <= 4
 e455: [ x77^2 - 2 x77 * x79 + x79^2 ] <= 1
 e456: [ 0.9 x40^2 - 0.6 x40 * x41 - 1.8 x40 * x80 + 0.6 x40 * x81 + 0.1 x41^2 + 0.6 x41 * x80 - 0.2 x41 * x81 
  + 0.9 x80^2 - 0.6 x80 * x81 + 0.1 x81^2 ] <= 10
 e457: [ 0.6923076923 x42^2 - 0.9230769231 x42 * x43 - 1.384615385 x42 * x80 + 0.9230769231 x42 * x81 
  + 0.3076923077 x43^2 + 0.9230769231 x43 * x80 - 0.6153846154 x43 * x81 + 0.6923076923 x80^2 - 0.9230769231 x80 * x81 
  + 0.3076923077 x81^2 ] <= 13
 e458: [ 0.8 x54^2 - 0.8 x54 * x55 - 1.6 x54 * x80 + 0.8 x54 * x81 + 0.2 x55^2 + 0.8 x55 * x80 - 0.4 x55 * x81 
  + 0.8 x80^2 - 0.8 x80 * x81 + 0.2 x81^2 ] <= 5
 e459: [ 0.3076923077 x58^2 - 0.9230769231 x58 * x59 - 0.6153846154 x58 * x80 + 0.9230769231 x58 * x81 
  + 0.6923076923 x59^2 + 0.9230769231 x59 * x80 - 1.384615385 x59 * x81 + 0.3076923077 x80^2 - 0.9230769231 x80 * x81 
  + 0.6923076923 x81^2 ] <= 13
 e460: [ x66^2 - 2 x66 * x80 + x80^2 ] <= 1
 e461: [ 0.5 x68^2 - x68 * x69 - x68 * x80 + x68 * x81 + 0.5 x69^2 + x69 * x80 - x69 * x81 + 0.5 x80^2 
  - x80 * x81 + 0.5 x81^2 ] <= 2
 e462: [ 0.2 x70^2 - 0.8 x70 * x71 - 0.4 x70 * x80 + 0.8 x70 * x81 + 0.8 x71^2 + 0.8 x71 * x80 - 1.6 x71 * x81 
  + 0.2 x80^2 - 0.8 x80 * x81 + 0.8 x81^2 ] <= 5
 e463: [ 0.1 x72^2 - 0.6 x72 * x73 - 0.2 x72 * x80 + 0.6 x72 * x81 + 0.9 x73^2 + 0.6 x73 * x80 - 1.8 x73 * x81 
  + 0.1 x80^2 - 0.6 x80 * x81 + 0.9 x81^2 ] <= 10
 e464: [ 0.9 x38^2 + 0.6 x38 * x39 - 1.8 x38 * x82 - 0.6 x38 * x83 + 0.1 x39^2 - 0.6 x39 * x82 - 0.2 x39 * x83 
  + 0.9 x82^2 + 0.6 x82 * x83 + 0.1 x83^2 ] <= 10
 e465: [ 0.9 x42^2 - 0.6 x42 * x43 - 1.8 x42 * x82 + 0.6 x42 * x83 + 0.1 x43^2 + 0.6 x43 * x82 - 0.2 x43 * x83 
  + 0.9 x82^2 - 0.6 x82 * x83 + 0.1 x83^2 ] <= 10
 e466: [ 0.6923076923 x44^2 - 0.9230769231 x44 * x45 - 1.384615385 x44 * x82 + 0.9230769231 x44 * x83 
  + 0.3076923077 x45^2 + 0.9230769231 x45 * x82 - 0.6153846154 x45 * x83 + 0.6923076923 x82^2 - 0.9230769231 x82 * x83 
  + 0.3076923077 x83^2 ] <= 13
 e467: [ 0.8 x52^2 + 0.8 x52 * x53 - 1.6 x52 * x82 - 0.8 x52 * x83 + 0.2 x53^2 - 0.8 x53 * x82 - 0.4 x53 * x83 
  + 0.8 x82^2 + 0.8 x82 * x83 + 0.2 x83^2 ] <= 5
 e468: [ 0.8 x56^2 - 0.8 x56 * x57 - 1.6 x56 * x82 + 0.8 x56 * x83 + 0.2 x57^2 + 0.8 x57 * x82 - 0.4 x57 * x83 
  + 0.8 x82^2 - 0.8 x82 * x83 + 0.2 x83^2 ] <= 5
 e469: [ 0.3076923077 x60^2 - 0.9230769231 x60 * x61 - 0.6153846154 x60 * x82 + 0.9230769231 x60 * x83 
  + 0.6923076923 x61^2 + 0.9230769231 x61 * x82 - 1.384615385 x61 * x83 + 0.3076923077 x82^2 - 0.9230769231 x82 * x83 
  + 0.6923076923 x83^2 ] <= 13
 e470: [ 0.5 x66^2 + x66 * x67 - x66 * x82 - x66 * x83 + 0.5 x67^2 - x67 * x82 - x67 * x83 + 0.5 x82^2 
  + x82 * x83 + 0.5 x83^2 ] <= 2
 e471: [ x68^2 - 2 x68 * x82 + x82^2 ] <= 1
 e472: [ 0.5 x70^2 - x70 * x71 - x70 * x82 + x70 * x83 + 0.5 x71^2 + x71 * x82 - x71 * x83 + 0.5 x82^2 
  - x82 * x83 + 0.5 x83^2 ] <= 2
 e473: [ 0.2 x72^2 - 0.8 x72 * x73 - 0.4 x72 * x82 + 0.8 x72 * x83 + 0.8 x73^2 + 0.8 x73 * x82 - 1.6 x73 * x83 
  + 0.2 x82^2 - 0.8 x82 * x83 + 0.8 x83^2 ] <= 5
 e474: [ 0.1 x74^2 - 0.6 x74 * x75 - 0.2 x74 * x82 + 0.6 x74 * x83 + 0.9 x75^2 + 0.6 x75 * x82 - 1.8 x75 * x83 
  + 0.1 x82^2 - 0.6 x82 * x83 + 0.9 x83^2 ] <= 10
 e475: [ x81^2 - 2 x81 * x83 + x83^2 ] <= 1
 e476: [ 0.6923076923 x38^2 + 0.9230769231 x38 * x39 - 1.384615385 x38 * x84 - 0.9230769231 x38 * x85 
  + 0.3076923077 x39^2 - 0.9230769231 x39 * x84 - 0.6153846154 x39 * x85 + 0.6923076923 x84^2 + 0.9230769231 x84 * x85 
  + 0.3076923077 x85^2 ] <= 13
 e477: [ 0.9 x40^2 + 0.6 x40 * x41 - 1.8 x40 * x84 - 0.6 x40 * x85 + 0.1 x41^2 - 0.6 x41 * x84 - 0.2 x41 * x85 
  + 0.9 x84^2 + 0.6 x84 * x85 + 0.1 x85^2 ] <= 10
 e478: [ 0.9 x44^2 - 0.6 x44 * x45 - 1.8 x44 * x84 + 0.6 x44 * x85 + 0.1 x45^2 + 0.6 x45 * x84 - 0.2 x45 * x85 
  + 0.9 x84^2 - 0.6 x84 * x85 + 0.1 x85^2 ] <= 10
 e479: [ 0.6923076923 x46^2 - 0.9230769231 x46 * x47 - 1.384615385 x46 * x84 + 0.9230769231 x46 * x85 
  + 0.3076923077 x47^2 + 0.9230769231 x47 * x84 - 0.6153846154 x47 * x85 + 0.6923076923 x84^2 - 0.9230769231 x84 * x85 
  + 0.3076923077 x85^2 ] <= 13
 e480: [ 0.8 x54^2 + 0.8 x54 * x55 - 1.6 x54 * x84 - 0.8 x54 * x85 + 0.2 x55^2 - 0.8 x55 * x84 - 0.4 x55 * x85 
  + 0.8 x84^2 + 0.8 x84 * x85 + 0.2 x85^2 ] <= 5
 e481: [ 0.8 x58^2 - 0.8 x58 * x59 - 1.6 x58 * x84 + 0.8 x58 * x85 + 0.2 x59^2 + 0.8 x59 * x84 - 0.4 x59 * x85 
  + 0.8 x84^2 - 0.8 x84 * x85 + 0.2 x85^2 ] <= 5
 e482: [ 0.3076923077 x62^2 - 0.9230769231 x62 * x63 - 0.6153846154 x62 * x84 + 0.9230769231 x62 * x85 
  + 0.6923076923 x63^2 + 0.9230769231 x63 * x84 - 1.384615385 x63 * x85 + 0.3076923077 x84^2 - 0.9230769231 x84 * x85 
  + 0.6923076923 x85^2 ] <= 13
 e483: [ 0.2 x66^2 + 0.8 x66 * x67 - 0.4 x66 * x84 - 0.8 x66 * x85 + 0.8 x67^2 - 0.8 x67 * x84 - 1.6 x67 * x85 
  + 0.2 x84^2 + 0.8 x84 * x85 + 0.8 x85^2 ] <= 5
 e484: [ 0.5 x68^2 + x68 * x69 - x68 * x84 - x68 * x85 + 0.5 x69^2 - x69 * x84 - x69 * x85 + 0.5 x84^2 
  + x84 * x85 + 0.5 x85^2 ] <= 2
 e485: [ x70^2 - 2 x70 * x84 + x84^2 ] <= 1
 e486: [ 0.5 x72^2 - x72 * x73 - x72 * x84 + x72 * x85 + 0.5 x73^2 + x73 * x84 - x73 * x85 + 0.5 x84^2 
  - x84 * x85 + 0.5 x85^2 ] <= 2
 e487: [ 0.2 x74^2 - 0.8 x74 * x75 - 0.4 x74 * x84 + 0.8 x74 * x85 + 0.8 x75^2 + 0.8 x75 * x84 - 1.6 x75 * x85 
  + 0.2 x84^2 - 0.8 x84 * x85 + 0.8 x85^2 ] <= 5
 e488: [ 0.1 x76^2 - 0.6 x76 * x77 - 0.2 x76 * x84 + 0.6 x76 * x85 + 0.9 x77^2 + 0.6 x77 * x84 - 1.8 x77 * x85 
  + 0.1 x84^2 - 0.6 x84 * x85 + 0.9 x85^2 ] <= 10
 e489: [ x81^2 - 2 x81 * x85 + x85^2 ] <= 4
 e490: [ x83^2 - 2 x83 * x85 + x85^2 ] <= 1
 e491: [ 0.6923076923 x40^2 + 0.9230769231 x40 * x41 - 1.384615385 x40 * x86 - 0.9230769231 x40 * x87 
  + 0.3076923077 x41^2 - 0.9230769231 x41 * x86 - 0.6153846154 x41 * x87 + 0.6923076923 x86^2 + 0.9230769231 x86 * x87 
  + 0.3076923077 x87^2 ] <= 13
 e492: [ 0.9 x42^2 + 0.6 x42 * x43 - 1.8 x42 * x86 - 0.6 x42 * x87 + 0.1 x43^2 - 0.6 x43 * x86 - 0.2 x43 * x87 
  + 0.9 x86^2 + 0.6 x86 * x87 + 0.1 x87^2 ] <= 10
 e493: [ 0.9 x46^2 - 0.6 x46 * x47 - 1.8 x46 * x86 + 0.6 x46 * x87 + 0.1 x47^2 + 0.6 x47 * x86 - 0.2 x47 * x87 
  + 0.9 x86^2 - 0.6 x86 * x87 + 0.1 x87^2 ] <= 10
 e494: [ 0.6923076923 x48^2 - 0.9230769231 x48 * x49 - 1.384615385 x48 * x86 + 0.9230769231 x48 * x87 
  + 0.3076923077 x49^2 + 0.9230769231 x49 * x86 - 0.6153846154 x49 * x87 + 0.6923076923 x86^2 - 0.9230769231 x86 * x87 
  + 0.3076923077 x87^2 ] <= 13
 e495: [ 0.3076923077 x52^2 + 0.9230769231 x52 * x53 - 0.6153846154 x52 * x86 - 0.9230769231 x52 * x87 
  + 0.6923076923 x53^2 - 0.9230769231 x53 * x86 - 1.384615385 x53 * x87 + 0.3076923077 x86^2 + 0.9230769231 x86 * x87 
  + 0.6923076923 x87^2 ] <= 13
 e496: [ 0.8 x56^2 + 0.8 x56 * x57 - 1.6 x56 * x86 - 0.8 x56 * x87 + 0.2 x57^2 - 0.8 x57 * x86 - 0.4 x57 * x87 
  + 0.8 x86^2 + 0.8 x86 * x87 + 0.2 x87^2 ] <= 5
 e497: [ 0.8 x60^2 - 0.8 x60 * x61 - 1.6 x60 * x86 + 0.8 x60 * x87 + 0.2 x61^2 + 0.8 x61 * x86 - 0.4 x61 * x87 
  + 0.8 x86^2 - 0.8 x86 * x87 + 0.2 x87^2 ] <= 5
 e498: [ 0.3076923077 x64^2 - 0.9230769231 x64 * x65 - 0.6153846154 x64 * x86 + 0.9230769231 x64 * x87 
  + 0.6923076923 x65^2 + 0.9230769231 x65 * x86 - 1.384615385 x65 * x87 + 0.3076923077 x86^2 - 0.9230769231 x86 * x87 
  + 0.6923076923 x87^2 ] <= 13
 e499: [ 0.1 x66^2 + 0.6 x66 * x67 - 0.2 x66 * x86 - 0.6 x66 * x87 + 0.9 x67^2 - 0.6 x67 * x86 - 1.8 x67 * x87 
  + 0.1 x86^2 + 0.6 x86 * x87 + 0.9 x87^2 ] <= 10
 e500: [ 0.2 x68^2 + 0.8 x68 * x69 - 0.4 x68 * x86 - 0.8 x68 * x87 + 0.8 x69^2 - 0.8 x69 * x86 - 1.6 x69 * x87 
  + 0.2 x86^2 + 0.8 x86 * x87 + 0.8 x87^2 ] <= 5
 e501: [ 0.5 x70^2 + x70 * x71 - x70 * x86 - x70 * x87 + 0.5 x71^2 - x71 * x86 - x71 * x87 + 0.5 x86^2 
  + x86 * x87 + 0.5 x87^2 ] <= 2
 e502: [ x72^2 - 2 x72 * x86 + x86^2 ] <= 1
 e503: [ 0.5 x74^2 - x74 * x75 - x74 * x86 + x74 * x87 + 0.5 x75^2 + x75 * x86 - x75 * x87 + 0.5 x86^2 
  - x86 * x87 + 0.5 x87^2 ] <= 2
 e504: [ 0.2 x76^2 - 0.8 x76 * x77 - 0.4 x76 * x86 + 0.8 x76 * x87 + 0.8 x77^2 + 0.8 x77 * x86 - 1.6 x77 * x87 
  + 0.2 x86^2 - 0.8 x86 * x87 + 0.8 x87^2 ] <= 5
 e505: [ 0.1 x78^2 - 0.6 x78 * x79 - 0.2 x78 * x86 + 0.6 x78 * x87 + 0.9 x79^2 + 0.6 x79 * x86 - 1.8 x79 * x87 
  + 0.1 x86^2 - 0.6 x86 * x87 + 0.9 x87^2 ] <= 10
 e506: [ x81^2 - 2 x81 * x87 + x87^2 ] <= 9
 e507: [ x83^2 - 2 x83 * x87 + x87^2 ] <= 4
 e508: [ x85^2 - 2 x85 * x87 + x87^2 ] <= 1
 e509: [ 0.6923076923 x42^2 + 0.9230769231 x42 * x43 - 1.384615385 x42 * x88 - 0.9230769231 x42 * x89 
  + 0.3076923077 x43^2 - 0.9230769231 x43 * x88 - 0.6153846154 x43 * x89 + 0.6923076923 x88^2 + 0.9230769231 x88 * x89 
  + 0.3076923077 x89^2 ] <= 13
 e510: [ 0.9 x44^2 + 0.6 x44 * x45 - 1.8 x44 * x88 - 0.6 x44 * x89 + 0.1 x45^2 - 0.6 x45 * x88 - 0.2 x45 * x89 
  + 0.9 x88^2 + 0.6 x88 * x89 + 0.1 x89^2 ] <= 10
 e511: [ 0.9 x48^2 - 0.6 x48 * x49 - 1.8 x48 * x88 + 0.6 x48 * x89 + 0.1 x49^2 + 0.6 x49 * x88 - 0.2 x49 * x89 
  + 0.9 x88^2 - 0.6 x88 * x89 + 0.1 x89^2 ] <= 10
 e512: [ 0.6923076923 x50^2 - 0.9230769231 x50 * x51 - 1.384615385 x50 * x88 + 0.9230769231 x50 * x89 
  + 0.3076923077 x51^2 + 0.9230769231 x51 * x88 - 0.6153846154 x51 * x89 + 0.6923076923 x88^2 - 0.9230769231 x88 * x89 
  + 0.3076923077 x89^2 ] <= 13
 e513: [ 0.3076923077 x54^2 + 0.9230769231 x54 * x55 - 0.6153846154 x54 * x88 - 0.9230769231 x54 * x89 
  + 0.6923076923 x55^2 - 0.9230769231 x55 * x88 - 1.384615385 x55 * x89 + 0.3076923077 x88^2 + 0.9230769231 x88 * x89 
  + 0.6923076923 x89^2 ] <= 13
 e514: [ 0.8 x58^2 + 0.8 x58 * x59 - 1.6 x58 * x88 - 0.8 x58 * x89 + 0.2 x59^2 - 0.8 x59 * x88 - 0.4 x59 * x89 
  + 0.8 x88^2 + 0.8 x88 * x89 + 0.2 x89^2 ] <= 5
 e515: [ 0.8 x62^2 - 0.8 x62 * x63 - 1.6 x62 * x88 + 0.8 x62 * x89 + 0.2 x63^2 + 0.8 x63 * x88 - 0.4 x63 * x89 
  + 0.8 x88^2 - 0.8 x88 * x89 + 0.2 x89^2 ] <= 5
 e516: [ 0.1 x68^2 + 0.6 x68 * x69 - 0.2 x68 * x88 - 0.6 x68 * x89 + 0.9 x69^2 - 0.6 x69 * x88 - 1.8 x69 * x89 
  + 0.1 x88^2 + 0.6 x88 * x89 + 0.9 x89^2 ] <= 10
 e517: [ 0.2 x70^2 + 0.8 x70 * x71 - 0.4 x70 * x88 - 0.8 x70 * x89 + 0.8 x71^2 - 0.8 x71 * x88 - 1.6 x71 * x89 
  + 0.2 x88^2 + 0.8 x88 * x89 + 0.8 x89^2 ] <= 5
 e518: [ 0.5 x72^2 + x72 * x73 - x72 * x88 - x72 * x89 + 0.5 x73^2 - x73 * x88 - x73 * x89 + 0.5 x88^2 
  + x88 * x89 + 0.5 x89^2 ] <= 2
 e519: [ x74^2 - 2 x74 * x88 + x88^2 ] <= 1
 e520: [ 0.5 x76^2 - x76 * x77 - x76 * x88 + x76 * x89 + 0.5 x77^2 + x77 * x88 - x77 * x89 + 0.5 x88^2 
  - x88 * x89 + 0.5 x89^2 ] <= 2
 e521: [ 0.2 x78^2 - 0.8 x78 * x79 - 0.4 x78 * x88 + 0.8 x78 * x89 + 0.8 x79^2 + 0.8 x79 * x88 - 1.6 x79 * x89 
  + 0.2 x88^2 - 0.8 x88 * x89 + 0.8 x89^2 ] <= 5
 e522: [ x81^2 - 2 x81 * x89 + x89^2 ] <= 16
 e523: [ x83^2 - 2 x83 * x89 + x89^2 ] <= 9
 e524: [ x85^2 - 2 x85 * x89 + x89^2 ] <= 4
 e525: [ x87^2 - 2 x87 * x89 + x89^2 ] <= 1
 e526: [ 0.6923076923 x44^2 + 0.9230769231 x44 * x45 - 1.384615385 x44 * x90 - 0.9230769231 x44 * x91 
  + 0.3076923077 x45^2 - 0.9230769231 x45 * x90 - 0.6153846154 x45 * x91 + 0.6923076923 x90^2 + 0.9230769231 x90 * x91 
  + 0.3076923077 x91^2 ] <= 13
 e527: [ 0.9 x46^2 + 0.6 x46 * x47 - 1.8 x46 * x90 - 0.6 x46 * x91 + 0.1 x47^2 - 0.6 x47 * x90 - 0.2 x47 * x91 
  + 0.9 x90^2 + 0.6 x90 * x91 + 0.1 x91^2 ] <= 10
 e528: [ 0.9 x50^2 - 0.6 x50 * x51 - 1.8 x50 * x90 + 0.6 x50 * x91 + 0.1 x51^2 + 0.6 x51 * x90 - 0.2 x51 * x91 
  + 0.9 x90^2 - 0.6 x90 * x91 + 0.1 x91^2 ] <= 10
 e529: [ 0.3076923077 x56^2 + 0.9230769231 x56 * x57 - 0.6153846154 x56 * x90 - 0.9230769231 x56 * x91 
  + 0.6923076923 x57^2 - 0.9230769231 x57 * x90 - 1.384615385 x57 * x91 + 0.3076923077 x90^2 + 0.9230769231 x90 * x91 
  + 0.6923076923 x91^2 ] <= 13
 e530: [ 0.8 x60^2 + 0.8 x60 * x61 - 1.6 x60 * x90 - 0.8 x60 * x91 + 0.2 x61^2 - 0.8 x61 * x90 - 0.4 x61 * x91 
  + 0.8 x90^2 + 0.8 x90 * x91 + 0.2 x91^2 ] <= 5
 e531: [ 0.8 x64^2 - 0.8 x64 * x65 - 1.6 x64 * x90 + 0.8 x64 * x91 + 0.2 x65^2 + 0.8 x65 * x90 - 0.4 x65 * x91 
  + 0.8 x90^2 - 0.8 x90 * x91 + 0.2 x91^2 ] <= 5
 e532: [ 0.1 x70^2 + 0.6 x70 * x71 - 0.2 x70 * x90 - 0.6 x70 * x91 + 0.9 x71^2 - 0.6 x71 * x90 - 1.8 x71 * x91 
  + 0.1 x90^2 + 0.6 x90 * x91 + 0.9 x91^2 ] <= 10
 e533: [ 0.2 x72^2 + 0.8 x72 * x73 - 0.4 x72 * x90 - 0.8 x72 * x91 + 0.8 x73^2 - 0.8 x73 * x90 - 1.6 x73 * x91 
  + 0.2 x90^2 + 0.8 x90 * x91 + 0.8 x91^2 ] <= 5
 e534: [ 0.5 x74^2 + x74 * x75 - x74 * x90 - x74 * x91 + 0.5 x75^2 - x75 * x90 - x75 * x91 + 0.5 x90^2 
  + x90 * x91 + 0.5 x91^2 ] <= 2
 e535: [ x76^2 - 2 x76 * x90 + x90^2 ] <= 1
 e536: [ 0.5 x78^2 - x78 * x79 - x78 * x90 + x78 * x91 + 0.5 x79^2 + x79 * x90 - x79 * x91 + 0.5 x90^2 
  - x90 * x91 + 0.5 x91^2 ] <= 2
 e537: [ x81^2 - 2 x81 * x91 + x91^2 ] <= 25
 e538: [ x83^2 - 2 x83 * x91 + x91^2 ] <= 16
 e539: [ x85^2 - 2 x85 * x91 + x91^2 ] <= 9
 e540: [ x87^2 - 2 x87 * x91 + x91^2 ] <= 4
 e541: [ x89^2 - 2 x89 * x91 + x91^2 ] <= 1
 e542: [ 0.6923076923 x46^2 + 0.9230769231 x46 * x47 - 1.384615385 x46 * x92 - 0.9230769231 x46 * x93 
  + 0.3076923077 x47^2 - 0.9230769231 x47 * x92 - 0.6153846154 x47 * x93 + 0.6923076923 x92^2 + 0.9230769231 x92 * x93 
  + 0.3076923077 x93^2 ] <= 13
 e543: [ 0.9 x48^2 + 0.6 x48 * x49 - 1.8 x48 * x92 - 0.6 x48 * x93 + 0.1 x49^2 - 0.6 x49 * x92 - 0.2 x49 * x93 
  + 0.9 x92^2 + 0.6 x92 * x93 + 0.1 x93^2 ] <= 10
 e544: [ 0.3076923077 x58^2 + 0.9230769231 x58 * x59 - 0.6153846154 x58 * x92 - 0.9230769231 x58 * x93 
  + 0.6923076923 x59^2 - 0.9230769231 x59 * x92 - 1.384615385 x59 * x93 + 0.3076923077 x92^2 + 0.9230769231 x92 * x93 
  + 0.6923076923 x93^2 ] <= 13
 e545: [ 0.8 x62^2 + 0.8 x62 * x63 - 1.6 x62 * x92 - 0.8 x62 * x93 + 0.2 x63^2 - 0.8 x63 * x92 - 0.4 x63 * x93 
  + 0.8 x92^2 + 0.8 x92 * x93 + 0.2 x93^2 ] <= 5
 e546: [ 0.1 x72^2 + 0.6 x72 * x73 - 0.2 x72 * x92 - 0.6 x72 * x93 + 0.9 x73^2 - 0.6 x73 * x92 - 1.8 x73 * x93 
  + 0.1 x92^2 + 0.6 x92 * x93 + 0.9 x93^2 ] <= 10
 e547: [ 0.2 x74^2 + 0.8 x74 * x75 - 0.4 x74 * x92 - 0.8 x74 * x93 + 0.8 x75^2 - 0.8 x75 * x92 - 1.6 x75 * x93 
  + 0.2 x92^2 + 0.8 x92 * x93 + 0.8 x93^2 ] <= 5
 e548: [ 0.5 x76^2 + x76 * x77 - x76 * x92 - x76 * x93 + 0.5 x77^2 - x77 * x92 - x77 * x93 + 0.5 x92^2 
  + x92 * x93 + 0.5 x93^2 ] <= 2
 e549: [ x78^2 - 2 x78 * x92 + x92^2 ] <= 1
 e550: [ x81^2 - 2 x81 * x93 + x93^2 ] <= 36
 e551: [ x83^2 - 2 x83 * x93 + x93^2 ] <= 25
 e552: [ x85^2 - 2 x85 * x93 + x93^2 ] <= 16
 e553: [ x87^2 - 2 x87 * x93 + x93^2 ] <= 9
 e554: [ x89^2 - 2 x89 * x93 + x93^2 ] <= 4
 e555: [ x91^2 - 2 x91 * x93 + x93^2 ] <= 1
 e556: [ 0.9 x54^2 - 0.6 x54 * x55 - 1.8 x54 * x94 + 0.6 x54 * x95 + 0.1 x55^2 + 0.6 x55 * x94 - 0.2 x55 * x95 
  + 0.9 x94^2 - 0.6 x94 * x95 + 0.1 x95^2 ] <= 10
 e557: [ 0.6923076923 x56^2 - 0.9230769231 x56 * x57 - 1.384615385 x56 * x94 + 0.9230769231 x56 * x95 
  + 0.3076923077 x57^2 + 0.9230769231 x57 * x94 - 0.6153846154 x57 * x95 + 0.6923076923 x94^2 - 0.9230769231 x94 * x95 
  + 0.3076923077 x95^2 ] <= 13
 e558: [ 0.8 x68^2 - 0.8 x68 * x69 - 1.6 x68 * x94 + 0.8 x68 * x95 + 0.2 x69^2 + 0.8 x69 * x94 - 0.4 x69 * x95 
  + 0.8 x94^2 - 0.8 x94 * x95 + 0.2 x95^2 ] <= 5
 e559: [ 0.3076923077 x72^2 - 0.9230769231 x72 * x73 - 0.6153846154 x72 * x94 + 0.9230769231 x72 * x95 
  + 0.6923076923 x73^2 + 0.9230769231 x73 * x94 - 1.384615385 x73 * x95 + 0.3076923077 x94^2 - 0.9230769231 x94 * x95 
  + 0.6923076923 x95^2 ] <= 13
 e560: [ x80^2 - 2 x80 * x94 + x94^2 ] <= 1
 e561: [ 0.5 x82^2 - x82 * x83 - x82 * x94 + x82 * x95 + 0.5 x83^2 + x83 * x94 - x83 * x95 + 0.5 x94^2 
  - x94 * x95 + 0.5 x95^2 ] <= 2
 e562: [ 0.2 x84^2 - 0.8 x84 * x85 - 0.4 x84 * x94 + 0.8 x84 * x95 + 0.8 x85^2 + 0.8 x85 * x94 - 1.6 x85 * x95 
  + 0.2 x94^2 - 0.8 x94 * x95 + 0.8 x95^2 ] <= 5
 e563: [ 0.1 x86^2 - 0.6 x86 * x87 - 0.2 x86 * x94 + 0.6 x86 * x95 + 0.9 x87^2 + 0.6 x87 * x94 - 1.8 x87 * x95 
  + 0.1 x94^2 - 0.6 x94 * x95 + 0.9 x95^2 ] <= 10
 e564: [ 0.9 x52^2 + 0.6 x52 * x53 - 1.8 x52 * x96 - 0.6 x52 * x97 + 0.1 x53^2 - 0.6 x53 * x96 - 0.2 x53 * x97 
  + 0.9 x96^2 + 0.6 x96 * x97 + 0.1 x97^2 ] <= 10
 e565: [ 0.9 x56^2 - 0.6 x56 * x57 - 1.8 x56 * x96 + 0.6 x56 * x97 + 0.1 x57^2 + 0.6 x57 * x96 - 0.2 x57 * x97 
  + 0.9 x96^2 - 0.6 x96 * x97 + 0.1 x97^2 ] <= 10
 e566: [ 0.6923076923 x58^2 - 0.9230769231 x58 * x59 - 1.384615385 x58 * x96 + 0.9230769231 x58 * x97 
  + 0.3076923077 x59^2 + 0.9230769231 x59 * x96 - 0.6153846154 x59 * x97 + 0.6923076923 x96^2 - 0.9230769231 x96 * x97 
  + 0.3076923077 x97^2 ] <= 13
 e567: [ 0.8 x66^2 + 0.8 x66 * x67 - 1.6 x66 * x96 - 0.8 x66 * x97 + 0.2 x67^2 - 0.8 x67 * x96 - 0.4 x67 * x97 
  + 0.8 x96^2 + 0.8 x96 * x97 + 0.2 x97^2 ] <= 5
 e568: [ 0.8 x70^2 - 0.8 x70 * x71 - 1.6 x70 * x96 + 0.8 x70 * x97 + 0.2 x71^2 + 0.8 x71 * x96 - 0.4 x71 * x97 
  + 0.8 x96^2 - 0.8 x96 * x97 + 0.2 x97^2 ] <= 5
 e569: [ 0.3076923077 x74^2 - 0.9230769231 x74 * x75 - 0.6153846154 x74 * x96 + 0.9230769231 x74 * x97 
  + 0.6923076923 x75^2 + 0.9230769231 x75 * x96 - 1.384615385 x75 * x97 + 0.3076923077 x96^2 - 0.9230769231 x96 * x97 
  + 0.6923076923 x97^2 ] <= 13
 e570: [ 0.5 x80^2 + x80 * x81 - x80 * x96 - x80 * x97 + 0.5 x81^2 - x81 * x96 - x81 * x97 + 0.5 x96^2 
  + x96 * x97 + 0.5 x97^2 ] <= 2
 e571: [ x82^2 - 2 x82 * x96 + x96^2 ] <= 1
 e572: [ 0.5 x84^2 - x84 * x85 - x84 * x96 + x84 * x97 + 0.5 x85^2 + x85 * x96 - x85 * x97 + 0.5 x96^2 
  - x96 * x97 + 0.5 x97^2 ] <= 2
 e573: [ 0.2 x86^2 - 0.8 x86 * x87 - 0.4 x86 * x96 + 0.8 x86 * x97 + 0.8 x87^2 + 0.8 x87 * x96 - 1.6 x87 * x97 
  + 0.2 x96^2 - 0.8 x96 * x97 + 0.8 x97^2 ] <= 5
 e574: [ 0.1 x88^2 - 0.6 x88 * x89 - 0.2 x88 * x96 + 0.6 x88 * x97 + 0.9 x89^2 + 0.6 x89 * x96 - 1.8 x89 * x97 
  + 0.1 x96^2 - 0.6 x96 * x97 + 0.9 x97^2 ] <= 10
 e575: [ x95^2 - 2 x95 * x97 + x97^2 ] <= 1
 e576: [ 0.6923076923 x52^2 + 0.9230769231 x52 * x53 - 1.384615385 x52 * x98 - 0.9230769231 x52 * x99 
  + 0.3076923077 x53^2 - 0.9230769231 x53 * x98 - 0.6153846154 x53 * x99 + 0.6923076923 x98^2 + 0.9230769231 x98 * x99 
  + 0.3076923077 x99^2 ] <= 13
 e577: [ 0.9 x54^2 + 0.6 x54 * x55 - 1.8 x54 * x98 - 0.6 x54 * x99 + 0.1 x55^2 - 0.6 x55 * x98 - 0.2 x55 * x99 
  + 0.9 x98^2 + 0.6 x98 * x99 + 0.1 x99^2 ] <= 10
 e578: [ 0.9 x58^2 - 0.6 x58 * x59 - 1.8 x58 * x98 + 0.6 x58 * x99 + 0.1 x59^2 + 0.6 x59 * x98 - 0.2 x59 * x99 
  + 0.9 x98^2 - 0.6 x98 * x99 + 0.1 x99^2 ] <= 10
 e579: [ 0.6923076923 x60^2 - 0.9230769231 x60 * x61 - 1.384615385 x60 * x98 + 0.9230769231 x60 * x99 
  + 0.3076923077 x61^2 + 0.9230769231 x61 * x98 - 0.6153846154 x61 * x99 + 0.6923076923 x98^2 - 0.9230769231 x98 * x99 
  + 0.3076923077 x99^2 ] <= 13
 e580: [ 0.8 x68^2 + 0.8 x68 * x69 - 1.6 x68 * x98 - 0.8 x68 * x99 + 0.2 x69^2 - 0.8 x69 * x98 - 0.4 x69 * x99 
  + 0.8 x98^2 + 0.8 x98 * x99 + 0.2 x99^2 ] <= 5
 e581: [ 0.8 x72^2 - 0.8 x72 * x73 - 1.6 x72 * x98 + 0.8 x72 * x99 + 0.2 x73^2 + 0.8 x73 * x98 - 0.4 x73 * x99 
  + 0.8 x98^2 - 0.8 x98 * x99 + 0.2 x99^2 ] <= 5
 e582: [ 0.3076923077 x76^2 - 0.9230769231 x76 * x77 - 0.6153846154 x76 * x98 + 0.9230769231 x76 * x99 
  + 0.6923076923 x77^2 + 0.9230769231 x77 * x98 - 1.384615385 x77 * x99 + 0.3076923077 x98^2 - 0.9230769231 x98 * x99 
  + 0.6923076923 x99^2 ] <= 13
 e583: [ 0.2 x80^2 + 0.8 x80 * x81 - 0.4 x80 * x98 - 0.8 x80 * x99 + 0.8 x81^2 - 0.8 x81 * x98 - 1.6 x81 * x99 
  + 0.2 x98^2 + 0.8 x98 * x99 + 0.8 x99^2 ] <= 5
 e584: [ 0.5 x82^2 + x82 * x83 - x82 * x98 - x82 * x99 + 0.5 x83^2 - x83 * x98 - x83 * x99 + 0.5 x98^2 
  + x98 * x99 + 0.5 x99^2 ] <= 2
 e585: [ x84^2 - 2 x84 * x98 + x98^2 ] <= 1
 e586: [ 0.5 x86^2 - x86 * x87 - x86 * x98 + x86 * x99 + 0.5 x87^2 + x87 * x98 - x87 * x99 + 0.5 x98^2 
  - x98 * x99 + 0.5 x99^2 ] <= 2
 e587: [ 0.2 x88^2 - 0.8 x88 * x89 - 0.4 x88 * x98 + 0.8 x88 * x99 + 0.8 x89^2 + 0.8 x89 * x98 - 1.6 x89 * x99 
  + 0.2 x98^2 - 0.8 x98 * x99 + 0.8 x99^2 ] <= 5
 e588: [ 0.1 x90^2 - 0.6 x90 * x91 - 0.2 x90 * x98 + 0.6 x90 * x99 + 0.9 x91^2 + 0.6 x91 * x98 - 1.8 x91 * x99 
  + 0.1 x98^2 - 0.6 x98 * x99 + 0.9 x99^2 ] <= 10
 e589: [ x95^2 - 2 x95 * x99 + x99^2 ] <= 4
 e590: [ x97^2 - 2 x97 * x99 + x99^2 ] <= 1
 e591: [ 0.6923076923 x54^2 + 0.9230769231 x54 * x55 - 1.384615385 x54 * x100 - 0.9230769231 x54 * x101 
  + 0.3076923077 x55^2 - 0.9230769231 x55 * x100 - 0.6153846154 x55 * x101 + 0.6923076923 x100^2 + 0.9230769231 x100 * x101 
  + 0.3076923077 x101^2 ] <= 13
 e592: [ 0.9 x56^2 + 0.6 x56 * x57 - 1.8 x56 * x100 - 0.6 x56 * x101 + 0.1 x57^2 - 0.6 x57 * x100 - 0.2 x57 * x101 
  + 0.9 x100^2 + 0.6 x100 * x101 + 0.1 x101^2 ] <= 10
 e593: [ 0.9 x60^2 - 0.6 x60 * x61 - 1.8 x60 * x100 + 0.6 x60 * x101 + 0.1 x61^2 + 0.6 x61 * x100 - 0.2 x61 * x101 
  + 0.9 x100^2 - 0.6 x100 * x101 + 0.1 x101^2 ] <= 10
 e594: [ 0.6923076923 x62^2 - 0.9230769231 x62 * x63 - 1.384615385 x62 * x100 + 0.9230769231 x62 * x101 
  + 0.3076923077 x63^2 + 0.9230769231 x63 * x100 - 0.6153846154 x63 * x101 + 0.6923076923 x100^2 - 0.9230769231 x100 * x101 
  + 0.3076923077 x101^2 ] <= 13
 e595: [ 0.3076923077 x66^2 + 0.9230769231 x66 * x67 - 0.6153846154 x66 * x100 - 0.9230769231 x66 * x101 
  + 0.6923076923 x67^2 - 0.9230769231 x67 * x100 - 1.384615385 x67 * x101 + 0.3076923077 x100^2 + 0.9230769231 x100 * x101 
  + 0.6923076923 x101^2 ] <= 13
 e596: [ 0.8 x70^2 + 0.8 x70 * x71 - 1.6 x70 * x100 - 0.8 x70 * x101 + 0.2 x71^2 - 0.8 x71 * x100 - 0.4 x71 * x101 
  + 0.8 x100^2 + 0.8 x100 * x101 + 0.2 x101^2 ] <= 5
 e597: [ 0.8 x74^2 - 0.8 x74 * x75 - 1.6 x74 * x100 + 0.8 x74 * x101 + 0.2 x75^2 + 0.8 x75 * x100 - 0.4 x75 * x101 
  + 0.8 x100^2 - 0.8 x100 * x101 + 0.2 x101^2 ] <= 5
 e598: [ 0.3076923077 x78^2 - 0.9230769231 x78 * x79 - 0.6153846154 x78 * x100 + 0.9230769231 x78 * x101 
  + 0.6923076923 x79^2 + 0.9230769231 x79 * x100 - 1.384615385 x79 * x101 + 0.3076923077 x100^2 - 0.9230769231 x100 * x101 
  + 0.6923076923 x101^2 ] <= 13
 e599: [ 0.1 x80^2 + 0.6 x80 * x81 - 0.2 x80 * x100 - 0.6 x80 * x101 + 0.9 x81^2 - 0.6 x81 * x100 - 1.8 x81 * x101 
  + 0.1 x100^2 + 0.6 x100 * x101 + 0.9 x101^2 ] <= 10
 e600: [ 0.2 x82^2 + 0.8 x82 * x83 - 0.4 x82 * x100 - 0.8 x82 * x101 + 0.8 x83^2 - 0.8 x83 * x100 - 1.6 x83 * x101 
  + 0.2 x100^2 + 0.8 x100 * x101 + 0.8 x101^2 ] <= 5
 e601: [ 0.5 x84^2 + x84 * x85 - x84 * x100 - x84 * x101 + 0.5 x85^2 - x85 * x100 - x85 * x101 + 0.5 x100^2 
  + x100 * x101 + 0.5 x101^2 ] <= 2
 e602: [ x86^2 - 2 x86 * x100 + x100^2 ] <= 1
 e603: [ 0.5 x88^2 - x88 * x89 - x88 * x100 + x88 * x101 + 0.5 x89^2 + x89 * x100 - x89 * x101 + 0.5 x100^2 
  - x100 * x101 + 0.5 x101^2 ] <= 2
 e604: [ 0.2 x90^2 - 0.8 x90 * x91 - 0.4 x90 * x100 + 0.8 x90 * x101 + 0.8 x91^2 + 0.8 x91 * x100 - 1.6 x91 * x101 
  + 0.2 x100^2 - 0.8 x100 * x101 + 0.8 x101^2 ] <= 5
 e605: [ 0.1 x92^2 - 0.6 x92 * x93 - 0.2 x92 * x100 + 0.6 x92 * x101 + 0.9 x93^2 + 0.6 x93 * x100 - 1.8 x93 * x101 
  + 0.1 x100^2 - 0.6 x100 * x101 + 0.9 x101^2 ] <= 10
 e606: [ x95^2 - 2 x95 * x101 + x101^2 ] <= 9
 e607: [ x97^2 - 2 x97 * x101 + x101^2 ] <= 4
 e608: [ x99^2 - 2 x99 * x101 + x101^2 ] <= 1
 e609: [ 0.6923076923 x56^2 + 0.9230769231 x56 * x57 - 1.384615385 x56 * x102 - 0.9230769231 x56 * x103 
  + 0.3076923077 x57^2 - 0.9230769231 x57 * x102 - 0.6153846154 x57 * x103 + 0.6923076923 x102^2 + 0.9230769231 x102 * x103 
  + 0.3076923077 x103^2 ] <= 13
 e610: [ 0.9 x58^2 + 0.6 x58 * x59 - 1.8 x58 * x102 - 0.6 x58 * x103 + 0.1 x59^2 - 0.6 x59 * x102 - 0.2 x59 * x103 
  + 0.9 x102^2 + 0.6 x102 * x103 + 0.1 x103^2 ] <= 10
 e611: [ 0.9 x62^2 - 0.6 x62 * x63 - 1.8 x62 * x102 + 0.6 x62 * x103 + 0.1 x63^2 + 0.6 x63 * x102 - 0.2 x63 * x103 
  + 0.9 x102^2 - 0.6 x102 * x103 + 0.1 x103^2 ] <= 10
 e612: [ 0.6923076923 x64^2 - 0.9230769231 x64 * x65 - 1.384615385 x64 * x102 + 0.9230769231 x64 * x103 
  + 0.3076923077 x65^2 + 0.9230769231 x65 * x102 - 0.6153846154 x65 * x103 + 0.6923076923 x102^2 - 0.9230769231 x102 * x103 
  + 0.3076923077 x103^2 ] <= 13
 e613: [ 0.3076923077 x68^2 + 0.9230769231 x68 * x69 - 0.6153846154 x68 * x102 - 0.9230769231 x68 * x103 
  + 0.6923076923 x69^2 - 0.9230769231 x69 * x102 - 1.384615385 x69 * x103 + 0.3076923077 x102^2 + 0.9230769231 x102 * x103 
  + 0.6923076923 x103^2 ] <= 13
 e614: [ 0.8 x72^2 + 0.8 x72 * x73 - 1.6 x72 * x102 - 0.8 x72 * x103 + 0.2 x73^2 - 0.8 x73 * x102 - 0.4 x73 * x103 
  + 0.8 x102^2 + 0.8 x102 * x103 + 0.2 x103^2 ] <= 5
 e615: [ 0.8 x76^2 - 0.8 x76 * x77 - 1.6 x76 * x102 + 0.8 x76 * x103 + 0.2 x77^2 + 0.8 x77 * x102 - 0.4 x77 * x103 
  + 0.8 x102^2 - 0.8 x102 * x103 + 0.2 x103^2 ] <= 5
 e616: [ 0.1 x82^2 + 0.6 x82 * x83 - 0.2 x82 * x102 - 0.6 x82 * x103 + 0.9 x83^2 - 0.6 x83 * x102 - 1.8 x83 * x103 
  + 0.1 x102^2 + 0.6 x102 * x103 + 0.9 x103^2 ] <= 10
 e617: [ 0.2 x84^2 + 0.8 x84 * x85 - 0.4 x84 * x102 - 0.8 x84 * x103 + 0.8 x85^2 - 0.8 x85 * x102 - 1.6 x85 * x103 
  + 0.2 x102^2 + 0.8 x102 * x103 + 0.8 x103^2 ] <= 5
 e618: [ 0.5 x86^2 + x86 * x87 - x86 * x102 - x86 * x103 + 0.5 x87^2 - x87 * x102 - x87 * x103 + 0.5 x102^2 
  + x102 * x103 + 0.5 x103^2 ] <= 2
 e619: [ x88^2 - 2 x88 * x102 + x102^2 ] <= 1
 e620: [ 0.5 x90^2 - x90 * x91 - x90 * x102 + x90 * x103 + 0.5 x91^2 + x91 * x102 - x91 * x103 + 0.5 x102^2 
  - x102 * x103 + 0.5 x103^2 ] <= 2
 e621: [ 0.2 x92^2 - 0.8 x92 * x93 - 0.4 x92 * x102 + 0.8 x92 * x103 + 0.8 x93^2 + 0.8 x93 * x102 - 1.6 x93 * x103 
  + 0.2 x102^2 - 0.8 x102 * x103 + 0.8 x103^2 ] <= 5
 e622: [ x95^2 - 2 x95 * x103 + x103^2 ] <= 16
 e623: [ x97^2 - 2 x97 * x103 + x103^2 ] <= 9
 e624: [ x99^2 - 2 x99 * x103 + x103^2 ] <= 4
 e625: [ x101^2 - 2 x101 * x103 + x103^2 ] <= 1
 e626: [ 0.6923076923 x58^2 + 0.9230769231 x58 * x59 - 1.384615385 x58 * x104 - 0.9230769231 x58 * x105 
  + 0.3076923077 x59^2 - 0.9230769231 x59 * x104 - 0.6153846154 x59 * x105 + 0.6923076923 x104^2 + 0.9230769231 x104 * x105 
  + 0.3076923077 x105^2 ] <= 13
 e627: [ 0.9 x60^2 + 0.6 x60 * x61 - 1.8 x60 * x104 - 0.6 x60 * x105 + 0.1 x61^2 - 0.6 x61 * x104 - 0.2 x61 * x105 
  + 0.9 x104^2 + 0.6 x104 * x105 + 0.1 x105^2 ] <= 10
 e628: [ 0.9 x64^2 - 0.6 x64 * x65 - 1.8 x64 * x104 + 0.6 x64 * x105 + 0.1 x65^2 + 0.6 x65 * x104 - 0.2 x65 * x105 
  + 0.9 x104^2 - 0.6 x104 * x105 + 0.1 x105^2 ] <= 10
 e629: [ 0.3076923077 x70^2 + 0.9230769231 x70 * x71 - 0.6153846154 x70 * x104 - 0.9230769231 x70 * x105 
  + 0.6923076923 x71^2 - 0.9230769231 x71 * x104 - 1.384615385 x71 * x105 + 0.3076923077 x104^2 + 0.9230769231 x104 * x105 
  + 0.6923076923 x105^2 ] <= 13
 e630: [ 0.8 x74^2 + 0.8 x74 * x75 - 1.6 x74 * x104 - 0.8 x74 * x105 + 0.2 x75^2 - 0.8 x75 * x104 - 0.4 x75 * x105 
  + 0.8 x104^2 + 0.8 x104 * x105 + 0.2 x105^2 ] <= 5
 e631: [ 0.8 x78^2 - 0.8 x78 * x79 - 1.6 x78 * x104 + 0.8 x78 * x105 + 0.2 x79^2 + 0.8 x79 * x104 - 0.4 x79 * x105 
  + 0.8 x104^2 - 0.8 x104 * x105 + 0.2 x105^2 ] <= 5
 e632: [ 0.1 x84^2 + 0.6 x84 * x85 - 0.2 x84 * x104 - 0.6 x84 * x105 + 0.9 x85^2 - 0.6 x85 * x104 - 1.8 x85 * x105 
  + 0.1 x104^2 + 0.6 x104 * x105 + 0.9 x105^2 ] <= 10
 e633: [ 0.2 x86^2 + 0.8 x86 * x87 - 0.4 x86 * x104 - 0.8 x86 * x105 + 0.8 x87^2 - 0.8 x87 * x104 - 1.6 x87 * x105 
  + 0.2 x104^2 + 0.8 x104 * x105 + 0.8 x105^2 ] <= 5
 e634: [ 0.5 x88^2 + x88 * x89 - x88 * x104 - x88 * x105 + 0.5 x89^2 - x89 * x104 - x89 * x105 + 0.5 x104^2 
  + x104 * x105 + 0.5 x105^2 ] <= 2
 e635: [ x90^2 - 2 x90 * x104 + x104^2 ] <= 1
 e636: [ 0.5 x92^2 - x92 * x93 - x92 * x104 + x92 * x105 + 0.5 x93^2 + x93 * x104 - x93 * x105 + 0.5 x104^2 
  - x104 * x105 + 0.5 x105^2 ] <= 2
 e637: [ x95^2 - 2 x95 * x105 + x105^2 ] <= 25
 e638: [ x97^2 - 2 x97 * x105 + x105^2 ] <= 16
 e639: [ x99^2 - 2 x99 * x105 + x105^2 ] <= 9
 e640: [ x101^2 - 2 x101 * x105 + x105^2 ] <= 4
 e641: [ x103^2 - 2 x103 * x105 + x105^2 ] <= 1
 e642: [ 0.6923076923 x60^2 + 0.9230769231 x60 * x61 - 1.384615385 x60 * x106 - 0.9230769231 x60 * x107 
  + 0.3076923077 x61^2 - 0.9230769231 x61 * x106 - 0.6153846154 x61 * x107 + 0.6923076923 x106^2 + 0.9230769231 x106 * x107 
  + 0.3076923077 x107^2 ] <= 13
 e643: [ 0.9 x62^2 + 0.6 x62 * x63 - 1.8 x62 * x106 - 0.6 x62 * x107 + 0.1 x63^2 - 0.6 x63 * x106 - 0.2 x63 * x107 
  + 0.9 x106^2 + 0.6 x106 * x107 + 0.1 x107^2 ] <= 10
 e644: [ 0.3076923077 x72^2 + 0.9230769231 x72 * x73 - 0.6153846154 x72 * x106 - 0.9230769231 x72 * x107 
  + 0.6923076923 x73^2 - 0.9230769231 x73 * x106 - 1.384615385 x73 * x107 + 0.3076923077 x106^2 + 0.9230769231 x106 * x107 
  + 0.6923076923 x107^2 ] <= 13
 e645: [ 0.8 x76^2 + 0.8 x76 * x77 - 1.6 x76 * x106 - 0.8 x76 * x107 + 0.2 x77^2 - 0.8 x77 * x106 - 0.4 x77 * x107 
  + 0.8 x106^2 + 0.8 x106 * x107 + 0.2 x107^2 ] <= 5
 e646: [ 0.1 x86^2 + 0.6 x86 * x87 - 0.2 x86 * x106 - 0.6 x86 * x107 + 0.9 x87^2 - 0.6 x87 * x106 - 1.8 x87 * x107 
  + 0.1 x106^2 + 0.6 x106 * x107 + 0.9 x107^2 ] <= 10
 e647: [ 0.2 x88^2 + 0.8 x88 * x89 - 0.4 x88 * x106 - 0.8 x88 * x107 + 0.8 x89^2 - 0.8 x89 * x106 - 1.6 x89 * x107 
  + 0.2 x106^2 + 0.8 x106 * x107 + 0.8 x107^2 ] <= 5
 e648: [ 0.5 x90^2 + x90 * x91 - x90 * x106 - x90 * x107 + 0.5 x91^2 - x91 * x106 - x91 * x107 + 0.5 x106^2 
  + x106 * x107 + 0.5 x107^2 ] <= 2
 e649: [ x92^2 - 2 x92 * x106 + x106^2 ] <= 1
 e650: [ x95^2 - 2 x95 * x107 + x107^2 ] <= 36
 e651: [ x97^2 - 2 x97 * x107 + x107^2 ] <= 25
 e652: [ x99^2 - 2 x99 * x107 + x107^2 ] <= 16
 e653: [ x101^2 - 2 x101 * x107 + x107^2 ] <= 9
 e654: [ x103^2 - 2 x103 * x107 + x107^2 ] <= 4
 e655: [ x105^2 - 2 x105 * x107 + x107^2 ] <= 1
 e656: [ 0.9 x68^2 - 0.6 x68 * x69 - 1.8 x68 * x108 + 0.6 x68 * x109 + 0.1 x69^2 + 0.6 x69 * x108 - 0.2 x69 * x109 
  + 0.9 x108^2 - 0.6 x108 * x109 + 0.1 x109^2 ] <= 10
 e657: [ 0.6923076923 x70^2 - 0.9230769231 x70 * x71 - 1.384615385 x70 * x108 + 0.9230769231 x70 * x109 
  + 0.3076923077 x71^2 + 0.9230769231 x71 * x108 - 0.6153846154 x71 * x109 + 0.6923076923 x108^2 - 0.9230769231 x108 * x109 
  + 0.3076923077 x109^2 ] <= 13
 e658: [ 0.8 x82^2 - 0.8 x82 * x83 - 1.6 x82 * x108 + 0.8 x82 * x109 + 0.2 x83^2 + 0.8 x83 * x108 - 0.4 x83 * x109 
  + 0.8 x108^2 - 0.8 x108 * x109 + 0.2 x109^2 ] <= 5
 e659: [ 0.3076923077 x86^2 - 0.9230769231 x86 * x87 - 0.6153846154 x86 * x108 + 0.9230769231 x86 * x109 
  + 0.6923076923 x87^2 + 0.9230769231 x87 * x108 - 1.384615385 x87 * x109 + 0.3076923077 x108^2 - 0.9230769231 x108 * x109 
  + 0.6923076923 x109^2 ] <= 13
 e660: [ x94^2 - 2 x94 * x108 + x108^2 ] <= 1
 e661: [ 0.5 x96^2 - x96 * x97 - x96 * x108 + x96 * x109 + 0.5 x97^2 + x97 * x108 - x97 * x109 + 0.5 x108^2 
  - x108 * x109 + 0.5 x109^2 ] <= 2
 e662: [ 0.2 x98^2 - 0.8 x98 * x99 - 0.4 x98 * x108 + 0.8 x98 * x109 + 0.8 x99^2 + 0.8 x99 * x108 - 1.6 x99 * x109 
  + 0.2 x108^2 - 0.8 x108 * x109 + 0.8 x109^2 ] <= 5
 e663: [ 0.1 x100^2 - 0.6 x100 * x101 - 0.2 x100 * x108 + 0.6 x100 * x109 + 0.9 x101^2 + 0.6 x101 * x108 
  - 1.8 x101 * x109 + 0.1 x108^2 - 0.6 x108 * x109 + 0.9 x109^2 ] <= 10
 e664: [ 0.9 x66^2 + 0.6 x66 * x67 - 1.8 x66 * x110 - 0.6 x66 * x111 + 0.1 x67^2 - 0.6 x67 * x110 - 0.2 x67 * x111 
  + 0.9 x110^2 + 0.6 x110 * x111 + 0.1 x111^2 ] <= 10
 e665: [ 0.9 x70^2 - 0.6 x70 * x71 - 1.8 x70 * x110 + 0.6 x70 * x111 + 0.1 x71^2 + 0.6 x71 * x110 - 0.2 x71 * x111 
  + 0.9 x110^2 - 0.6 x110 * x111 + 0.1 x111^2 ] <= 10
 e666: [ 0.6923076923 x72^2 - 0.9230769231 x72 * x73 - 1.384615385 x72 * x110 + 0.9230769231 x72 * x111 
  + 0.3076923077 x73^2 + 0.9230769231 x73 * x110 - 0.6153846154 x73 * x111 + 0.6923076923 x110^2 - 0.9230769231 x110 * x111 
  + 0.3076923077 x111^2 ] <= 13
 e667: [ 0.8 x80^2 + 0.8 x80 * x81 - 1.6 x80 * x110 - 0.8 x80 * x111 + 0.2 x81^2 - 0.8 x81 * x110 - 0.4 x81 * x111 
  + 0.8 x110^2 + 0.8 x110 * x111 + 0.2 x111^2 ] <= 5
 e668: [ 0.8 x84^2 - 0.8 x84 * x85 - 1.6 x84 * x110 + 0.8 x84 * x111 + 0.2 x85^2 + 0.8 x85 * x110 - 0.4 x85 * x111 
  + 0.8 x110^2 - 0.8 x110 * x111 + 0.2 x111^2 ] <= 5
 e669: [ 0.3076923077 x88^2 - 0.9230769231 x88 * x89 - 0.6153846154 x88 * x110 + 0.9230769231 x88 * x111 
  + 0.6923076923 x89^2 + 0.9230769231 x89 * x110 - 1.384615385 x89 * x111 + 0.3076923077 x110^2 - 0.9230769231 x110 * x111 
  + 0.6923076923 x111^2 ] <= 13
 e670: [ 0.5 x94^2 + x94 * x95 - x94 * x110 - x94 * x111 + 0.5 x95^2 - x95 * x110 - x95 * x111 + 0.5 x110^2 
  + x110 * x111 + 0.5 x111^2 ] <= 2
 e671: [ x96^2 - 2 x96 * x110 + x110^2 ] <= 1
 e672: [ 0.5 x98^2 - x98 * x99 - x98 * x110 + x98 * x111 + 0.5 x99^2 + x99 * x110 - x99 * x111 + 0.5 x110^2 
  - x110 * x111 + 0.5 x111^2 ] <= 2
 e673: [ 0.2 x100^2 - 0.8 x100 * x101 - 0.4 x100 * x110 + 0.8 x100 * x111 + 0.8 x101^2 + 0.8 x101 * x110 
  - 1.6 x101 * x111 + 0.2 x110^2 - 0.8 x110 * x111 + 0.8 x111^2 ] <= 5
 e674: [ 0.1 x102^2 - 0.6 x102 * x103 - 0.2 x102 * x110 + 0.6 x102 * x111 + 0.9 x103^2 + 0.6 x103 * x110 
  - 1.8 x103 * x111 + 0.1 x110^2 - 0.6 x110 * x111 + 0.9 x111^2 ] <= 10
 e675: [ x109^2 - 2 x109 * x111 + x111^2 ] <= 1
 e676: [ 0.6923076923 x66^2 + 0.9230769231 x66 * x67 - 1.384615385 x66 * x112 - 0.9230769231 x66 * x113 
  + 0.3076923077 x67^2 - 0.9230769231 x67 * x112 - 0.6153846154 x67 * x113 + 0.6923076923 x112^2 + 0.9230769231 x112 * x113 
  + 0.3076923077 x113^2 ] <= 13
 e677: [ 0.9 x68^2 + 0.6 x68 * x69 - 1.8 x68 * x112 - 0.6 x68 * x113 + 0.1 x69^2 - 0.6 x69 * x112 - 0.2 x69 * x113 
  + 0.9 x112^2 + 0.6 x112 * x113 + 0.1 x113^2 ] <= 10
 e678: [ 0.9 x72^2 - 0.6 x72 * x73 - 1.8 x72 * x112 + 0.6 x72 * x113 + 0.1 x73^2 + 0.6 x73 * x112 - 0.2 x73 * x113 
  + 0.9 x112^2 - 0.6 x112 * x113 + 0.1 x113^2 ] <= 10
 e679: [ 0.6923076923 x74^2 - 0.9230769231 x74 * x75 - 1.384615385 x74 * x112 + 0.9230769231 x74 * x113 
  + 0.3076923077 x75^2 + 0.9230769231 x75 * x112 - 0.6153846154 x75 * x113 + 0.6923076923 x112^2 - 0.9230769231 x112 * x113 
  + 0.3076923077 x113^2 ] <= 13
 e680: [ 0.8 x82^2 + 0.8 x82 * x83 - 1.6 x82 * x112 - 0.8 x82 * x113 + 0.2 x83^2 - 0.8 x83 * x112 - 0.4 x83 * x113 
  + 0.8 x112^2 + 0.8 x112 * x113 + 0.2 x113^2 ] <= 5
 e681: [ 0.8 x86^2 - 0.8 x86 * x87 - 1.6 x86 * x112 + 0.8 x86 * x113 + 0.2 x87^2 + 0.8 x87 * x112 - 0.4 x87 * x113 
  + 0.8 x112^2 - 0.8 x112 * x113 + 0.2 x113^2 ] <= 5
 e682: [ 0.3076923077 x90^2 - 0.9230769231 x90 * x91 - 0.6153846154 x90 * x112 + 0.9230769231 x90 * x113 
  + 0.6923076923 x91^2 + 0.9230769231 x91 * x112 - 1.384615385 x91 * x113 + 0.3076923077 x112^2 - 0.9230769231 x112 * x113 
  + 0.6923076923 x113^2 ] <= 13
 e683: [ 0.2 x94^2 + 0.8 x94 * x95 - 0.4 x94 * x112 - 0.8 x94 * x113 + 0.8 x95^2 - 0.8 x95 * x112 - 1.6 x95 * x113 
  + 0.2 x112^2 + 0.8 x112 * x113 + 0.8 x113^2 ] <= 5
 e684: [ 0.5 x96^2 + x96 * x97 - x96 * x112 - x96 * x113 + 0.5 x97^2 - x97 * x112 - x97 * x113 + 0.5 x112^2 
  + x112 * x113 + 0.5 x113^2 ] <= 2
 e685: [ x98^2 - 2 x98 * x112 + x112^2 ] <= 1
 e686: [ 0.5 x100^2 - x100 * x101 - x100 * x112 + x100 * x113 + 0.5 x101^2 + x101 * x112 - x101 * x113 
  + 0.5 x112^2 - x112 * x113 + 0.5 x113^2 ] <= 2
 e687: [ 0.2 x102^2 - 0.8 x102 * x103 - 0.4 x102 * x112 + 0.8 x102 * x113 + 0.8 x103^2 + 0.8 x103 * x112 
  - 1.6 x103 * x113 + 0.2 x112^2 - 0.8 x112 * x113 + 0.8 x113^2 ] <= 5
 e688: [ 0.1 x104^2 - 0.6 x104 * x105 - 0.2 x104 * x112 + 0.6 x104 * x113 + 0.9 x105^2 + 0.6 x105 * x112 
  - 1.8 x105 * x113 + 0.1 x112^2 - 0.6 x112 * x113 + 0.9 x113^2 ] <= 10
 e689: [ x109^2 - 2 x109 * x113 + x113^2 ] <= 4
 e690: [ x111^2 - 2 x111 * x113 + x113^2 ] <= 1
 e691: [ 0.6923076923 x68^2 + 0.9230769231 x68 * x69 - 1.384615385 x68 * x114 - 0.9230769231 x68 * x115 
  + 0.3076923077 x69^2 - 0.9230769231 x69 * x114 - 0.6153846154 x69 * x115 + 0.6923076923 x114^2 + 0.9230769231 x114 * x115 
  + 0.3076923077 x115^2 ] <= 13
 e692: [ 0.9 x70^2 + 0.6 x70 * x71 - 1.8 x70 * x114 - 0.6 x70 * x115 + 0.1 x71^2 - 0.6 x71 * x114 - 0.2 x71 * x115 
  + 0.9 x114^2 + 0.6 x114 * x115 + 0.1 x115^2 ] <= 10
 e693: [ 0.9 x74^2 - 0.6 x74 * x75 - 1.8 x74 * x114 + 0.6 x74 * x115 + 0.1 x75^2 + 0.6 x75 * x114 - 0.2 x75 * x115 
  + 0.9 x114^2 - 0.6 x114 * x115 + 0.1 x115^2 ] <= 10
 e694: [ 0.6923076923 x76^2 - 0.9230769231 x76 * x77 - 1.384615385 x76 * x114 + 0.9230769231 x76 * x115 
  + 0.3076923077 x77^2 + 0.9230769231 x77 * x114 - 0.6153846154 x77 * x115 + 0.6923076923 x114^2 - 0.9230769231 x114 * x115 
  + 0.3076923077 x115^2 ] <= 13
 e695: [ 0.3076923077 x80^2 + 0.9230769231 x80 * x81 - 0.6153846154 x80 * x114 - 0.9230769231 x80 * x115 
  + 0.6923076923 x81^2 - 0.9230769231 x81 * x114 - 1.384615385 x81 * x115 + 0.3076923077 x114^2 + 0.9230769231 x114 * x115 
  + 0.6923076923 x115^2 ] <= 13
 e696: [ 0.8 x84^2 + 0.8 x84 * x85 - 1.6 x84 * x114 - 0.8 x84 * x115 + 0.2 x85^2 - 0.8 x85 * x114 - 0.4 x85 * x115 
  + 0.8 x114^2 + 0.8 x114 * x115 + 0.2 x115^2 ] <= 5
 e697: [ 0.8 x88^2 - 0.8 x88 * x89 - 1.6 x88 * x114 + 0.8 x88 * x115 + 0.2 x89^2 + 0.8 x89 * x114 - 0.4 x89 * x115 
  + 0.8 x114^2 - 0.8 x114 * x115 + 0.2 x115^2 ] <= 5
 e698: [ 0.3076923077 x92^2 - 0.9230769231 x92 * x93 - 0.6153846154 x92 * x114 + 0.9230769231 x92 * x115 
  + 0.6923076923 x93^2 + 0.9230769231 x93 * x114 - 1.384615385 x93 * x115 + 0.3076923077 x114^2 - 0.9230769231 x114 * x115 
  + 0.6923076923 x115^2 ] <= 13
 e699: [ 0.1 x94^2 + 0.6 x94 * x95 - 0.2 x94 * x114 - 0.6 x94 * x115 + 0.9 x95^2 - 0.6 x95 * x114 - 1.8 x95 * x115 
  + 0.1 x114^2 + 0.6 x114 * x115 + 0.9 x115^2 ] <= 10
 e700: [ 0.2 x96^2 + 0.8 x96 * x97 - 0.4 x96 * x114 - 0.8 x96 * x115 + 0.8 x97^2 - 0.8 x97 * x114 - 1.6 x97 * x115 
  + 0.2 x114^2 + 0.8 x114 * x115 + 0.8 x115^2 ] <= 5
 e701: [ 0.5 x98^2 + x98 * x99 - x98 * x114 - x98 * x115 + 0.5 x99^2 - x99 * x114 - x99 * x115 + 0.5 x114^2 
  + x114 * x115 + 0.5 x115^2 ] <= 2
 e702: [ x100^2 - 2 x100 * x114 + x114^2 ] <= 1
 e703: [ 0.5 x102^2 - x102 * x103 - x102 * x114 + x102 * x115 + 0.5 x103^2 + x103 * x114 - x103 * x115 
  + 0.5 x114^2 - x114 * x115 + 0.5 x115^2 ] <= 2
 e704: [ 0.2 x104^2 - 0.8 x104 * x105 - 0.4 x104 * x114 + 0.8 x104 * x115 + 0.8 x105^2 + 0.8 x105 * x114 
  - 1.6 x105 * x115 + 0.2 x114^2 - 0.8 x114 * x115 + 0.8 x115^2 ] <= 5
 e705: [ 0.1 x106^2 - 0.6 x106 * x107 - 0.2 x106 * x114 + 0.6 x106 * x115 + 0.9 x107^2 + 0.6 x107 * x114 
  - 1.8 x107 * x115 + 0.1 x114^2 - 0.6 x114 * x115 + 0.9 x115^2 ] <= 10
 e706: [ x109^2 - 2 x109 * x115 + x115^2 ] <= 9
 e707: [ x111^2 - 2 x111 * x115 + x115^2 ] <= 4
 e708: [ x113^2 - 2 x113 * x115 + x115^2 ] <= 1
 e709: [ 0.6923076923 x70^2 + 0.9230769231 x70 * x71 - 1.384615385 x70 * x116 - 0.9230769231 x70 * x117 
  + 0.3076923077 x71^2 - 0.9230769231 x71 * x116 - 0.6153846154 x71 * x117 + 0.6923076923 x116^2 + 0.9230769231 x116 * x117 
  + 0.3076923077 x117^2 ] <= 13
 e710: [ 0.9 x72^2 + 0.6 x72 * x73 - 1.8 x72 * x116 - 0.6 x72 * x117 + 0.1 x73^2 - 0.6 x73 * x116 - 0.2 x73 * x117 
  + 0.9 x116^2 + 0.6 x116 * x117 + 0.1 x117^2 ] <= 10
 e711: [ 0.9 x76^2 - 0.6 x76 * x77 - 1.8 x76 * x116 + 0.6 x76 * x117 + 0.1 x77^2 + 0.6 x77 * x116 - 0.2 x77 * x117 
  + 0.9 x116^2 - 0.6 x116 * x117 + 0.1 x117^2 ] <= 10
 e712: [ 0.6923076923 x78^2 - 0.9230769231 x78 * x79 - 1.384615385 x78 * x116 + 0.9230769231 x78 * x117 
  + 0.3076923077 x79^2 + 0.9230769231 x79 * x116 - 0.6153846154 x79 * x117 + 0.6923076923 x116^2 - 0.9230769231 x116 * x117 
  + 0.3076923077 x117^2 ] <= 13
 e713: [ 0.3076923077 x82^2 + 0.9230769231 x82 * x83 - 0.6153846154 x82 * x116 - 0.9230769231 x82 * x117 
  + 0.6923076923 x83^2 - 0.9230769231 x83 * x116 - 1.384615385 x83 * x117 + 0.3076923077 x116^2 + 0.9230769231 x116 * x117 
  + 0.6923076923 x117^2 ] <= 13
 e714: [ 0.8 x86^2 + 0.8 x86 * x87 - 1.6 x86 * x116 - 0.8 x86 * x117 + 0.2 x87^2 - 0.8 x87 * x116 - 0.4 x87 * x117 
  + 0.8 x116^2 + 0.8 x116 * x117 + 0.2 x117^2 ] <= 5
 e715: [ 0.8 x90^2 - 0.8 x90 * x91 - 1.6 x90 * x116 + 0.8 x90 * x117 + 0.2 x91^2 + 0.8 x91 * x116 - 0.4 x91 * x117 
  + 0.8 x116^2 - 0.8 x116 * x117 + 0.2 x117^2 ] <= 5
 e716: [ 0.1 x96^2 + 0.6 x96 * x97 - 0.2 x96 * x116 - 0.6 x96 * x117 + 0.9 x97^2 - 0.6 x97 * x116 - 1.8 x97 * x117 
  + 0.1 x116^2 + 0.6 x116 * x117 + 0.9 x117^2 ] <= 10
 e717: [ 0.2 x98^2 + 0.8 x98 * x99 - 0.4 x98 * x116 - 0.8 x98 * x117 + 0.8 x99^2 - 0.8 x99 * x116 - 1.6 x99 * x117 
  + 0.2 x116^2 + 0.8 x116 * x117 + 0.8 x117^2 ] <= 5
 e718: [ 0.5 x100^2 + x100 * x101 - x100 * x116 - x100 * x117 + 0.5 x101^2 - x101 * x116 - x101 * x117 
  + 0.5 x116^2 + x116 * x117 + 0.5 x117^2 ] <= 2
 e719: [ x102^2 - 2 x102 * x116 + x116^2 ] <= 1
 e720: [ 0.5 x104^2 - x104 * x105 - x104 * x116 + x104 * x117 + 0.5 x105^2 + x105 * x116 - x105 * x117 
  + 0.5 x116^2 - x116 * x117 + 0.5 x117^2 ] <= 2
 e721: [ 0.2 x106^2 - 0.8 x106 * x107 - 0.4 x106 * x116 + 0.8 x106 * x117 + 0.8 x107^2 + 0.8 x107 * x116 
  - 1.6 x107 * x117 + 0.2 x116^2 - 0.8 x116 * x117 + 0.8 x117^2 ] <= 5
 e722: [ x109^2 - 2 x109 * x117 + x117^2 ] <= 16
 e723: [ x111^2 - 2 x111 * x117 + x117^2 ] <= 9
 e724: [ x113^2 - 2 x113 * x117 + x117^2 ] <= 4
 e725: [ x115^2 - 2 x115 * x117 + x117^2 ] <= 1
 e726: [ 0.6923076923 x72^2 + 0.9230769231 x72 * x73 - 1.384615385 x72 * x118 - 0.9230769231 x72 * x119 
  + 0.3076923077 x73^2 - 0.9230769231 x73 * x118 - 0.6153846154 x73 * x119 + 0.6923076923 x118^2 + 0.9230769231 x118 * x119 
  + 0.3076923077 x119^2 ] <= 13
 e727: [ 0.9 x74^2 + 0.6 x74 * x75 - 1.8 x74 * x118 - 0.6 x74 * x119 + 0.1 x75^2 - 0.6 x75 * x118 - 0.2 x75 * x119 
  + 0.9 x118^2 + 0.6 x118 * x119 + 0.1 x119^2 ] <= 10
 e728: [ 0.9 x78^2 - 0.6 x78 * x79 - 1.8 x78 * x118 + 0.6 x78 * x119 + 0.1 x79^2 + 0.6 x79 * x118 - 0.2 x79 * x119 
  + 0.9 x118^2 - 0.6 x118 * x119 + 0.1 x119^2 ] <= 10
 e729: [ 0.3076923077 x84^2 + 0.9230769231 x84 * x85 - 0.6153846154 x84 * x118 - 0.9230769231 x84 * x119 
  + 0.6923076923 x85^2 - 0.9230769231 x85 * x118 - 1.384615385 x85 * x119 + 0.3076923077 x118^2 + 0.9230769231 x118 * x119 
  + 0.6923076923 x119^2 ] <= 13
 e730: [ 0.8 x88^2 + 0.8 x88 * x89 - 1.6 x88 * x118 - 0.8 x88 * x119 + 0.2 x89^2 - 0.8 x89 * x118 - 0.4 x89 * x119 
  + 0.8 x118^2 + 0.8 x118 * x119 + 0.2 x119^2 ] <= 5
 e731: [ 0.8 x92^2 - 0.8 x92 * x93 - 1.6 x92 * x118 + 0.8 x92 * x119 + 0.2 x93^2 + 0.8 x93 * x118 - 0.4 x93 * x119 
  + 0.8 x118^2 - 0.8 x118 * x119 + 0.2 x119^2 ] <= 5
 e732: [ 0.1 x98^2 + 0.6 x98 * x99 - 0.2 x98 * x118 - 0.6 x98 * x119 + 0.9 x99^2 - 0.6 x99 * x118 - 1.8 x99 * x119 
  + 0.1 x118^2 + 0.6 x118 * x119 + 0.9 x119^2 ] <= 10
 e733: [ 0.2 x100^2 + 0.8 x100 * x101 - 0.4 x100 * x118 - 0.8 x100 * x119 + 0.8 x101^2 - 0.8 x101 * x118 
  - 1.6 x101 * x119 + 0.2 x118^2 + 0.8 x118 * x119 + 0.8 x119^2 ] <= 5
 e734: [ 0.5 x102^2 + x102 * x103 - x102 * x118 - x102 * x119 + 0.5 x103^2 - x103 * x118 - x103 * x119 
  + 0.5 x118^2 + x118 * x119 + 0.5 x119^2 ] <= 2
 e735: [ x104^2 - 2 x104 * x118 + x118^2 ] <= 1
 e736: [ 0.5 x106^2 - x106 * x107 - x106 * x118 + x106 * x119 + 0.5 x107^2 + x107 * x118 - x107 * x119 
  + 0.5 x118^2 - x118 * x119 + 0.5 x119^2 ] <= 2
 e737: [ x109^2 - 2 x109 * x119 + x119^2 ] <= 25
 e738: [ x111^2 - 2 x111 * x119 + x119^2 ] <= 16
 e739: [ x113^2 - 2 x113 * x119 + x119^2 ] <= 9
 e740: [ x115^2 - 2 x115 * x119 + x119^2 ] <= 4
 e741: [ x117^2 - 2 x117 * x119 + x119^2 ] <= 1
 e742: [ 0.6923076923 x74^2 + 0.9230769231 x74 * x75 - 1.384615385 x74 * x120 - 0.9230769231 x74 * x121 
  + 0.3076923077 x75^2 - 0.9230769231 x75 * x120 - 0.6153846154 x75 * x121 + 0.6923076923 x120^2 + 0.9230769231 x120 * x121 
  + 0.3076923077 x121^2 ] <= 13
 e743: [ 0.9 x76^2 + 0.6 x76 * x77 - 1.8 x76 * x120 - 0.6 x76 * x121 + 0.1 x77^2 - 0.6 x77 * x120 - 0.2 x77 * x121 
  + 0.9 x120^2 + 0.6 x120 * x121 + 0.1 x121^2 ] <= 10
 e744: [ 0.3076923077 x86^2 + 0.9230769231 x86 * x87 - 0.6153846154 x86 * x120 - 0.9230769231 x86 * x121 
  + 0.6923076923 x87^2 - 0.9230769231 x87 * x120 - 1.384615385 x87 * x121 + 0.3076923077 x120^2 + 0.9230769231 x120 * x121 
  + 0.6923076923 x121^2 ] <= 13
 e745: [ 0.8 x90^2 + 0.8 x90 * x91 - 1.6 x90 * x120 - 0.8 x90 * x121 + 0.2 x91^2 - 0.8 x91 * x120 - 0.4 x91 * x121 
  + 0.8 x120^2 + 0.8 x120 * x121 + 0.2 x121^2 ] <= 5
 e746: [ 0.1 x100^2 + 0.6 x100 * x101 - 0.2 x100 * x120 - 0.6 x100 * x121 + 0.9 x101^2 - 0.6 x101 * x120 
  - 1.8 x101 * x121 + 0.1 x120^2 + 0.6 x120 * x121 + 0.9 x121^2 ] <= 10
 e747: [ 0.2 x102^2 + 0.8 x102 * x103 - 0.4 x102 * x120 - 0.8 x102 * x121 + 0.8 x103^2 - 0.8 x103 * x120 
  - 1.6 x103 * x121 + 0.2 x120^2 + 0.8 x120 * x121 + 0.8 x121^2 ] <= 5
 e748: [ 0.5 x104^2 + x104 * x105 - x104 * x120 - x104 * x121 + 0.5 x105^2 - x105 * x120 - x105 * x121 
  + 0.5 x120^2 + x120 * x121 + 0.5 x121^2 ] <= 2
 e749: [ x106^2 - 2 x106 * x120 + x120^2 ] <= 1
 e750: [ x109^2 - 2 x109 * x121 + x121^2 ] <= 36
 e751: [ x111^2 - 2 x111 * x121 + x121^2 ] <= 25
 e752: [ x113^2 - 2 x113 * x121 + x121^2 ] <= 16
 e753: [ x115^2 - 2 x115 * x121 + x121^2 ] <= 9
 e754: [ x117^2 - 2 x117 * x121 + x121^2 ] <= 4
 e755: [ x119^2 - 2 x119 * x121 + x121^2 ] <= 1
 e756: [ 0.9 x82^2 - 0.6 x82 * x83 - 1.8 x82 * x122 + 0.6 x82 * x123 + 0.1 x83^2 + 0.6 x83 * x122 - 0.2 x83 * x123 
  + 0.9 x122^2 - 0.6 x122 * x123 + 0.1 x123^2 ] <= 10
 e757: [ 0.6923076923 x84^2 - 0.9230769231 x84 * x85 - 1.384615385 x84 * x122 + 0.9230769231 x84 * x123 
  + 0.3076923077 x85^2 + 0.9230769231 x85 * x122 - 0.6153846154 x85 * x123 + 0.6923076923 x122^2 - 0.9230769231 x122 * x123 
  + 0.3076923077 x123^2 ] <= 13
 e758: [ 0.8 x96^2 - 0.8 x96 * x97 - 1.6 x96 * x122 + 0.8 x96 * x123 + 0.2 x97^2 + 0.8 x97 * x122 - 0.4 x97 * x123 
  + 0.8 x122^2 - 0.8 x122 * x123 + 0.2 x123^2 ] <= 5
 e759: [ 0.3076923077 x100^2 - 0.9230769231 x100 * x101 - 0.6153846154 x100 * x122 + 0.9230769231 x100 * x123 
  + 0.6923076923 x101^2 + 0.9230769231 x101 * x122 - 1.384615385 x101 * x123 + 0.3076923077 x122^2 - 0.9230769231 x122 * x123 
  + 0.6923076923 x123^2 ] <= 13
 e760: [ x108^2 - 2 x108 * x122 + x122^2 ] <= 1
 e761: [ 0.5 x110^2 - x110 * x111 - x110 * x122 + x110 * x123 + 0.5 x111^2 + x111 * x122 - x111 * x123 
  + 0.5 x122^2 - x122 * x123 + 0.5 x123^2 ] <= 2
 e762: [ 0.2 x112^2 - 0.8 x112 * x113 - 0.4 x112 * x122 + 0.8 x112 * x123 + 0.8 x113^2 + 0.8 x113 * x122 
  - 1.6 x113 * x123 + 0.2 x122^2 - 0.8 x122 * x123 + 0.8 x123^2 ] <= 5
 e763: [ 0.1 x114^2 - 0.6 x114 * x115 - 0.2 x114 * x122 + 0.6 x114 * x123 + 0.9 x115^2 + 0.6 x115 * x122 
  - 1.8 x115 * x123 + 0.1 x122^2 - 0.6 x122 * x123 + 0.9 x123^2 ] <= 10
 e764: [ 0.9 x80^2 + 0.6 x80 * x81 - 1.8 x80 * x124 - 0.6 x80 * x125 + 0.1 x81^2 - 0.6 x81 * x124 - 0.2 x81 * x125 
  + 0.9 x124^2 + 0.6 x124 * x125 + 0.1 x125^2 ] <= 10
 e765: [ 0.9 x84^2 - 0.6 x84 * x85 - 1.8 x84 * x124 + 0.6 x84 * x125 + 0.1 x85^2 + 0.6 x85 * x124 - 0.2 x85 * x125 
  + 0.9 x124^2 - 0.6 x124 * x125 + 0.1 x125^2 ] <= 10
 e766: [ 0.6923076923 x86^2 - 0.9230769231 x86 * x87 - 1.384615385 x86 * x124 + 0.9230769231 x86 * x125 
  + 0.3076923077 x87^2 + 0.9230769231 x87 * x124 - 0.6153846154 x87 * x125 + 0.6923076923 x124^2 - 0.9230769231 x124 * x125 
  + 0.3076923077 x125^2 ] <= 13
 e767: [ 0.8 x94^2 + 0.8 x94 * x95 - 1.6 x94 * x124 - 0.8 x94 * x125 + 0.2 x95^2 - 0.8 x95 * x124 - 0.4 x95 * x125 
  + 0.8 x124^2 + 0.8 x124 * x125 + 0.2 x125^2 ] <= 5
 e768: [ 0.8 x98^2 - 0.8 x98 * x99 - 1.6 x98 * x124 + 0.8 x98 * x125 + 0.2 x99^2 + 0.8 x99 * x124 - 0.4 x99 * x125 
  + 0.8 x124^2 - 0.8 x124 * x125 + 0.2 x125^2 ] <= 5
 e769: [ 0.3076923077 x102^2 - 0.9230769231 x102 * x103 - 0.6153846154 x102 * x124 + 0.9230769231 x102 * x125 
  + 0.6923076923 x103^2 + 0.9230769231 x103 * x124 - 1.384615385 x103 * x125 + 0.3076923077 x124^2 - 0.9230769231 x124 * x125 
  + 0.6923076923 x125^2 ] <= 13
 e770: [ 0.5 x108^2 + x108 * x109 - x108 * x124 - x108 * x125 + 0.5 x109^2 - x109 * x124 - x109 * x125 
  + 0.5 x124^2 + x124 * x125 + 0.5 x125^2 ] <= 2
 e771: [ x110^2 - 2 x110 * x124 + x124^2 ] <= 1
 e772: [ 0.5 x112^2 - x112 * x113 - x112 * x124 + x112 * x125 + 0.5 x113^2 + x113 * x124 - x113 * x125 
  + 0.5 x124^2 - x124 * x125 + 0.5 x125^2 ] <= 2
 e773: [ 0.2 x114^2 - 0.8 x114 * x115 - 0.4 x114 * x124 + 0.8 x114 * x125 + 0.8 x115^2 + 0.8 x115 * x124 
  - 1.6 x115 * x125 + 0.2 x124^2 - 0.8 x124 * x125 + 0.8 x125^2 ] <= 5
 e774: [ 0.1 x116^2 - 0.6 x116 * x117 - 0.2 x116 * x124 + 0.6 x116 * x125 + 0.9 x117^2 + 0.6 x117 * x124 
  - 1.8 x117 * x125 + 0.1 x124^2 - 0.6 x124 * x125 + 0.9 x125^2 ] <= 10
 e775: [ x123^2 - 2 x123 * x125 + x125^2 ] <= 1
 e776: [ 0.6923076923 x80^2 + 0.9230769231 x80 * x81 - 1.384615385 x80 * x126 - 0.9230769231 x80 * x127 
  + 0.3076923077 x81^2 - 0.9230769231 x81 * x126 - 0.6153846154 x81 * x127 + 0.6923076923 x126^2 + 0.9230769231 x126 * x127 
  + 0.3076923077 x127^2 ] <= 13
 e777: [ 0.9 x82^2 + 0.6 x82 * x83 - 1.8 x82 * x126 - 0.6 x82 * x127 + 0.1 x83^2 - 0.6 x83 * x126 - 0.2 x83 * x127 
  + 0.9 x126^2 + 0.6 x126 * x127 + 0.1 x127^2 ] <= 10
 e778: [ 0.9 x86^2 - 0.6 x86 * x87 - 1.8 x86 * x126 + 0.6 x86 * x127 + 0.1 x87^2 + 0.6 x87 * x126 - 0.2 x87 * x127 
  + 0.9 x126^2 - 0.6 x126 * x127 + 0.1 x127^2 ] <= 10
 e779: [ 0.6923076923 x88^2 - 0.9230769231 x88 * x89 - 1.384615385 x88 * x126 + 0.9230769231 x88 * x127 
  + 0.3076923077 x89^2 + 0.9230769231 x89 * x126 - 0.6153846154 x89 * x127 + 0.6923076923 x126^2 - 0.9230769231 x126 * x127 
  + 0.3076923077 x127^2 ] <= 13
 e780: [ 0.8 x96^2 + 0.8 x96 * x97 - 1.6 x96 * x126 - 0.8 x96 * x127 + 0.2 x97^2 - 0.8 x97 * x126 - 0.4 x97 * x127 
  + 0.8 x126^2 + 0.8 x126 * x127 + 0.2 x127^2 ] <= 5
 e781: [ 0.8 x100^2 - 0.8 x100 * x101 - 1.6 x100 * x126 + 0.8 x100 * x127 + 0.2 x101^2 + 0.8 x101 * x126 
  - 0.4 x101 * x127 + 0.8 x126^2 - 0.8 x126 * x127 + 0.2 x127^2 ] <= 5
 e782: [ 0.3076923077 x104^2 - 0.9230769231 x104 * x105 - 0.6153846154 x104 * x126 + 0.9230769231 x104 * x127 
  + 0.6923076923 x105^2 + 0.9230769231 x105 * x126 - 1.384615385 x105 * x127 + 0.3076923077 x126^2 - 0.9230769231 x126 * x127 
  + 0.6923076923 x127^2 ] <= 13
 e783: [ 0.2 x108^2 + 0.8 x108 * x109 - 0.4 x108 * x126 - 0.8 x108 * x127 + 0.8 x109^2 - 0.8 x109 * x126 
  - 1.6 x109 * x127 + 0.2 x126^2 + 0.8 x126 * x127 + 0.8 x127^2 ] <= 5
 e784: [ 0.5 x110^2 + x110 * x111 - x110 * x126 - x110 * x127 + 0.5 x111^2 - x111 * x126 - x111 * x127 
  + 0.5 x126^2 + x126 * x127 + 0.5 x127^2 ] <= 2
 e785: [ x112^2 - 2 x112 * x126 + x126^2 ] <= 1
 e786: [ 0.5 x114^2 - x114 * x115 - x114 * x126 + x114 * x127 + 0.5 x115^2 + x115 * x126 - x115 * x127 
  + 0.5 x126^2 - x126 * x127 + 0.5 x127^2 ] <= 2
 e787: [ 0.2 x116^2 - 0.8 x116 * x117 - 0.4 x116 * x126 + 0.8 x116 * x127 + 0.8 x117^2 + 0.8 x117 * x126 
  - 1.6 x117 * x127 + 0.2 x126^2 - 0.8 x126 * x127 + 0.8 x127^2 ] <= 5
 e788: [ 0.1 x118^2 - 0.6 x118 * x119 - 0.2 x118 * x126 + 0.6 x118 * x127 + 0.9 x119^2 + 0.6 x119 * x126 
  - 1.8 x119 * x127 + 0.1 x126^2 - 0.6 x126 * x127 + 0.9 x127^2 ] <= 10
 e789: [ x123^2 - 2 x123 * x127 + x127^2 ] <= 4
 e790: [ x125^2 - 2 x125 * x127 + x127^2 ] <= 1
 e791: [ 0.6923076923 x82^2 + 0.9230769231 x82 * x83 - 1.384615385 x82 * x128 - 0.9230769231 x82 * x129 
  + 0.3076923077 x83^2 - 0.9230769231 x83 * x128 - 0.6153846154 x83 * x129 + 0.6923076923 x128^2 + 0.9230769231 x128 * x129 
  + 0.3076923077 x129^2 ] <= 13
 e792: [ 0.9 x84^2 + 0.6 x84 * x85 - 1.8 x84 * x128 - 0.6 x84 * x129 + 0.1 x85^2 - 0.6 x85 * x128 - 0.2 x85 * x129 
  + 0.9 x128^2 + 0.6 x128 * x129 + 0.1 x129^2 ] <= 10
 e793: [ 0.9 x88^2 - 0.6 x88 * x89 - 1.8 x88 * x128 + 0.6 x88 * x129 + 0.1 x89^2 + 0.6 x89 * x128 - 0.2 x89 * x129 
  + 0.9 x128^2 - 0.6 x128 * x129 + 0.1 x129^2 ] <= 10
 e794: [ 0.6923076923 x90^2 - 0.9230769231 x90 * x91 - 1.384615385 x90 * x128 + 0.9230769231 x90 * x129 
  + 0.3076923077 x91^2 + 0.9230769231 x91 * x128 - 0.6153846154 x91 * x129 + 0.6923076923 x128^2 - 0.9230769231 x128 * x129 
  + 0.3076923077 x129^2 ] <= 13
 e795: [ 0.3076923077 x94^2 + 0.9230769231 x94 * x95 - 0.6153846154 x94 * x128 - 0.9230769231 x94 * x129 
  + 0.6923076923 x95^2 - 0.9230769231 x95 * x128 - 1.384615385 x95 * x129 + 0.3076923077 x128^2 + 0.9230769231 x128 * x129 
  + 0.6923076923 x129^2 ] <= 13
 e796: [ 0.8 x98^2 + 0.8 x98 * x99 - 1.6 x98 * x128 - 0.8 x98 * x129 + 0.2 x99^2 - 0.8 x99 * x128 - 0.4 x99 * x129 
  + 0.8 x128^2 + 0.8 x128 * x129 + 0.2 x129^2 ] <= 5
 e797: [ 0.8 x102^2 - 0.8 x102 * x103 - 1.6 x102 * x128 + 0.8 x102 * x129 + 0.2 x103^2 + 0.8 x103 * x128 
  - 0.4 x103 * x129 + 0.8 x128^2 - 0.8 x128 * x129 + 0.2 x129^2 ] <= 5
 e798: [ 0.3076923077 x106^2 - 0.9230769231 x106 * x107 - 0.6153846154 x106 * x128 + 0.9230769231 x106 * x129 
  + 0.6923076923 x107^2 + 0.9230769231 x107 * x128 - 1.384615385 x107 * x129 + 0.3076923077 x128^2 - 0.9230769231 x128 * x129 
  + 0.6923076923 x129^2 ] <= 13
 e799: [ 0.1 x108^2 + 0.6 x108 * x109 - 0.2 x108 * x128 - 0.6 x108 * x129 + 0.9 x109^2 - 0.6 x109 * x128 
  - 1.8 x109 * x129 + 0.1 x128^2 + 0.6 x128 * x129 + 0.9 x129^2 ] <= 10
 e800: [ 0.2 x110^2 + 0.8 x110 * x111 - 0.4 x110 * x128 - 0.8 x110 * x129 + 0.8 x111^2 - 0.8 x111 * x128 
  - 1.6 x111 * x129 + 0.2 x128^2 + 0.8 x128 * x129 + 0.8 x129^2 ] <= 5
 e801: [ 0.5 x112^2 + x112 * x113 - x112 * x128 - x112 * x129 + 0.5 x113^2 - x113 * x128 - x113 * x129 
  + 0.5 x128^2 + x128 * x129 + 0.5 x129^2 ] <= 2
 e802: [ x114^2 - 2 x114 * x128 + x128^2 ] <= 1
 e803: [ 0.5 x116^2 - x116 * x117 - x116 * x128 + x116 * x129 + 0.5 x117^2 + x117 * x128 - x117 * x129 
  + 0.5 x128^2 - x128 * x129 + 0.5 x129^2 ] <= 2
 e804: [ 0.2 x118^2 - 0.8 x118 * x119 - 0.4 x118 * x128 + 0.8 x118 * x129 + 0.8 x119^2 + 0.8 x119 * x128 
  - 1.6 x119 * x129 + 0.2 x128^2 - 0.8 x128 * x129 + 0.8 x129^2 ] <= 5
 e805: [ 0.1 x120^2 - 0.6 x120 * x121 - 0.2 x120 * x128 + 0.6 x120 * x129 + 0.9 x121^2 + 0.6 x121 * x128 
  - 1.8 x121 * x129 + 0.1 x128^2 - 0.6 x128 * x129 + 0.9 x129^2 ] <= 10
 e806: [ x123^2 - 2 x123 * x129 + x129^2 ] <= 9
 e807: [ x125^2 - 2 x125 * x129 + x129^2 ] <= 4
 e808: [ x127^2 - 2 x127 * x129 + x129^2 ] <= 1
 e809: [ 0.6923076923 x84^2 + 0.9230769231 x84 * x85 - 1.384615385 x84 * x130 - 0.9230769231 x84 * x131 
  + 0.3076923077 x85^2 - 0.9230769231 x85 * x130 - 0.6153846154 x85 * x131 + 0.6923076923 x130^2 + 0.9230769231 x130 * x131 
  + 0.3076923077 x131^2 ] <= 13
 e810: [ 0.9 x86^2 + 0.6 x86 * x87 - 1.8 x86 * x130 - 0.6 x86 * x131 + 0.1 x87^2 - 0.6 x87 * x130 - 0.2 x87 * x131 
  + 0.9 x130^2 + 0.6 x130 * x131 + 0.1 x131^2 ] <= 10
 e811: [ 0.9 x90^2 - 0.6 x90 * x91 - 1.8 x90 * x130 + 0.6 x90 * x131 + 0.1 x91^2 + 0.6 x91 * x130 - 0.2 x91 * x131 
  + 0.9 x130^2 - 0.6 x130 * x131 + 0.1 x131^2 ] <= 10
 e812: [ 0.6923076923 x92^2 - 0.9230769231 x92 * x93 - 1.384615385 x92 * x130 + 0.9230769231 x92 * x131 
  + 0.3076923077 x93^2 + 0.9230769231 x93 * x130 - 0.6153846154 x93 * x131 + 0.6923076923 x130^2 - 0.9230769231 x130 * x131 
  + 0.3076923077 x131^2 ] <= 13
 e813: [ 0.3076923077 x96^2 + 0.9230769231 x96 * x97 - 0.6153846154 x96 * x130 - 0.9230769231 x96 * x131 
  + 0.6923076923 x97^2 - 0.9230769231 x97 * x130 - 1.384615385 x97 * x131 + 0.3076923077 x130^2 + 0.9230769231 x130 * x131 
  + 0.6923076923 x131^2 ] <= 13
 e814: [ 0.8 x100^2 + 0.8 x100 * x101 - 1.6 x100 * x130 - 0.8 x100 * x131 + 0.2 x101^2 - 0.8 x101 * x130 
  - 0.4 x101 * x131 + 0.8 x130^2 + 0.8 x130 * x131 + 0.2 x131^2 ] <= 5
 e815: [ 0.8 x104^2 - 0.8 x104 * x105 - 1.6 x104 * x130 + 0.8 x104 * x131 + 0.2 x105^2 + 0.8 x105 * x130 
  - 0.4 x105 * x131 + 0.8 x130^2 - 0.8 x130 * x131 + 0.2 x131^2 ] <= 5
 e816: [ 0.1 x110^2 + 0.6 x110 * x111 - 0.2 x110 * x130 - 0.6 x110 * x131 + 0.9 x111^2 - 0.6 x111 * x130 
  - 1.8 x111 * x131 + 0.1 x130^2 + 0.6 x130 * x131 + 0.9 x131^2 ] <= 10
 e817: [ 0.2 x112^2 + 0.8 x112 * x113 - 0.4 x112 * x130 - 0.8 x112 * x131 + 0.8 x113^2 - 0.8 x113 * x130 
  - 1.6 x113 * x131 + 0.2 x130^2 + 0.8 x130 * x131 + 0.8 x131^2 ] <= 5
 e818: [ 0.5 x114^2 + x114 * x115 - x114 * x130 - x114 * x131 + 0.5 x115^2 - x115 * x130 - x115 * x131 
  + 0.5 x130^2 + x130 * x131 + 0.5 x131^2 ] <= 2
 e819: [ x116^2 - 2 x116 * x130 + x130^2 ] <= 1
 e820: [ 0.5 x118^2 - x118 * x119 - x118 * x130 + x118 * x131 + 0.5 x119^2 + x119 * x130 - x119 * x131 
  + 0.5 x130^2 - x130 * x131 + 0.5 x131^2 ] <= 2
 e821: [ 0.2 x120^2 - 0.8 x120 * x121 - 0.4 x120 * x130 + 0.8 x120 * x131 + 0.8 x121^2 + 0.8 x121 * x130 
  - 1.6 x121 * x131 + 0.2 x130^2 - 0.8 x130 * x131 + 0.8 x131^2 ] <= 5
 e822: [ x123^2 - 2 x123 * x131 + x131^2 ] <= 16
 e823: [ x125^2 - 2 x125 * x131 + x131^2 ] <= 9
 e824: [ x127^2 - 2 x127 * x131 + x131^2 ] <= 4
 e825: [ x129^2 - 2 x129 * x131 + x131^2 ] <= 1
 e826: [ 0.6923076923 x86^2 + 0.9230769231 x86 * x87 - 1.384615385 x86 * x132 - 0.9230769231 x86 * x133 
  + 0.3076923077 x87^2 - 0.9230769231 x87 * x132 - 0.6153846154 x87 * x133 + 0.6923076923 x132^2 + 0.9230769231 x132 * x133 
  + 0.3076923077 x133^2 ] <= 13
 e827: [ 0.9 x88^2 + 0.6 x88 * x89 - 1.8 x88 * x132 - 0.6 x88 * x133 + 0.1 x89^2 - 0.6 x89 * x132 - 0.2 x89 * x133 
  + 0.9 x132^2 + 0.6 x132 * x133 + 0.1 x133^2 ] <= 10
 e828: [ 0.9 x92^2 - 0.6 x92 * x93 - 1.8 x92 * x132 + 0.6 x92 * x133 + 0.1 x93^2 + 0.6 x93 * x132 - 0.2 x93 * x133 
  + 0.9 x132^2 - 0.6 x132 * x133 + 0.1 x133^2 ] <= 10
 e829: [ 0.3076923077 x98^2 + 0.9230769231 x98 * x99 - 0.6153846154 x98 * x132 - 0.9230769231 x98 * x133 
  + 0.6923076923 x99^2 - 0.9230769231 x99 * x132 - 1.384615385 x99 * x133 + 0.3076923077 x132^2 + 0.9230769231 x132 * x133 
  + 0.6923076923 x133^2 ] <= 13
 e830: [ 0.8 x102^2 + 0.8 x102 * x103 - 1.6 x102 * x132 - 0.8 x102 * x133 + 0.2 x103^2 - 0.8 x103 * x132 
  - 0.4 x103 * x133 + 0.8 x132^2 + 0.8 x132 * x133 + 0.2 x133^2 ] <= 5
 e831: [ 0.8 x106^2 - 0.8 x106 * x107 - 1.6 x106 * x132 + 0.8 x106 * x133 + 0.2 x107^2 + 0.8 x107 * x132 
  - 0.4 x107 * x133 + 0.8 x132^2 - 0.8 x132 * x133 + 0.2 x133^2 ] <= 5
 e832: [ 0.1 x112^2 + 0.6 x112 * x113 - 0.2 x112 * x132 - 0.6 x112 * x133 + 0.9 x113^2 - 0.6 x113 * x132 
  - 1.8 x113 * x133 + 0.1 x132^2 + 0.6 x132 * x133 + 0.9 x133^2 ] <= 10
 e833: [ 0.2 x114^2 + 0.8 x114 * x115 - 0.4 x114 * x132 - 0.8 x114 * x133 + 0.8 x115^2 - 0.8 x115 * x132 
  - 1.6 x115 * x133 + 0.2 x132^2 + 0.8 x132 * x133 + 0.8 x133^2 ] <= 5
 e834: [ 0.5 x116^2 + x116 * x117 - x116 * x132 - x116 * x133 + 0.5 x117^2 - x117 * x132 - x117 * x133 
  + 0.5 x132^2 + x132 * x133 + 0.5 x133^2 ] <= 2
 e835: [ x118^2 - 2 x118 * x132 + x132^2 ] <= 1
 e836: [ 0.5 x120^2 - x120 * x121 - x120 * x132 + x120 * x133 + 0.5 x121^2 + x121 * x132 - x121 * x133 
  + 0.5 x132^2 - x132 * x133 + 0.5 x133^2 ] <= 2
 e837: [ x123^2 - 2 x123 * x133 + x133^2 ] <= 25
 e838: [ x125^2 - 2 x125 * x133 + x133^2 ] <= 16
 e839: [ x127^2 - 2 x127 * x133 + x133^2 ] <= 9
 e840: [ x129^2 - 2 x129 * x133 + x133^2 ] <= 4
 e841: [ x131^2 - 2 x131 * x133 + x133^2 ] <= 1
 e842: [ 0.6923076923 x88^2 + 0.9230769231 x88 * x89 - 1.384615385 x88 * x134 - 0.9230769231 x88 * x135 
  + 0.3076923077 x89^2 - 0.9230769231 x89 * x134 - 0.6153846154 x89 * x135 + 0.6923076923 x134^2 + 0.9230769231 x134 * x135 
  + 0.3076923077 x135^2 ] <= 13
 e843: [ 0.9 x90^2 + 0.6 x90 * x91 - 1.8 x90 * x134 - 0.6 x90 * x135 + 0.1 x91^2 - 0.6 x91 * x134 - 0.2 x91 * x135 
  + 0.9 x134^2 + 0.6 x134 * x135 + 0.1 x135^2 ] <= 10
 e844: [ 0.3076923077 x100^2 + 0.9230769231 x100 * x101 - 0.6153846154 x100 * x134 - 0.9230769231 x100 * x135 
  + 0.6923076923 x101^2 - 0.9230769231 x101 * x134 - 1.384615385 x101 * x135 + 0.3076923077 x134^2 + 0.9230769231 x134 * x135 
  + 0.6923076923 x135^2 ] <= 13
 e845: [ 0.8 x104^2 + 0.8 x104 * x105 - 1.6 x104 * x134 - 0.8 x104 * x135 + 0.2 x105^2 - 0.8 x105 * x134 
  - 0.4 x105 * x135 + 0.8 x134^2 + 0.8 x134 * x135 + 0.2 x135^2 ] <= 5
 e846: [ 0.1 x114^2 + 0.6 x114 * x115 - 0.2 x114 * x134 - 0.6 x114 * x135 + 0.9 x115^2 - 0.6 x115 * x134 
  - 1.8 x115 * x135 + 0.1 x134^2 + 0.6 x134 * x135 + 0.9 x135^2 ] <= 10
 e847: [ 0.2 x116^2 + 0.8 x116 * x117 - 0.4 x116 * x134 - 0.8 x116 * x135 + 0.8 x117^2 - 0.8 x117 * x134 
  - 1.6 x117 * x135 + 0.2 x134^2 + 0.8 x134 * x135 + 0.8 x135^2 ] <= 5
 e848: [ 0.5 x118^2 + x118 * x119 - x118 * x134 - x118 * x135 + 0.5 x119^2 - x119 * x134 - x119 * x135 
  + 0.5 x134^2 + x134 * x135 + 0.5 x135^2 ] <= 2
 e849: [ x120^2 - 2 x120 * x134 + x134^2 ] <= 1
 e850: [ x123^2 - 2 x123 * x135 + x135^2 ] <= 36
 e851: [ x125^2 - 2 x125 * x135 + x135^2 ] <= 25
 e852: [ x127^2 - 2 x127 * x135 + x135^2 ] <= 16
 e853: [ x129^2 - 2 x129 * x135 + x135^2 ] <= 9
 e854: [ x131^2 - 2 x131 * x135 + x135^2 ] <= 4
 e855: [ x133^2 - 2 x133 * x135 + x135^2 ] <= 1
 e856: [ 0.9 x96^2 - 0.6 x96 * x97 - 1.8 x96 * x136 + 0.6 x96 * x137 + 0.1 x97^2 + 0.6 x97 * x136 - 0.2 x97 * x137 
  + 0.9 x136^2 - 0.6 x136 * x137 + 0.1 x137^2 ] <= 10
 e857: [ 0.6923076923 x98^2 - 0.9230769231 x98 * x99 - 1.384615385 x98 * x136 + 0.9230769231 x98 * x137 
  + 0.3076923077 x99^2 + 0.9230769231 x99 * x136 - 0.6153846154 x99 * x137 + 0.6923076923 x136^2 - 0.9230769231 x136 * x137 
  + 0.3076923077 x137^2 ] <= 13
 e858: [ 0.8 x110^2 - 0.8 x110 * x111 - 1.6 x110 * x136 + 0.8 x110 * x137 + 0.2 x111^2 + 0.8 x111 * x136 
  - 0.4 x111 * x137 + 0.8 x136^2 - 0.8 x136 * x137 + 0.2 x137^2 ] <= 5
 e859: [ 0.3076923077 x114^2 - 0.9230769231 x114 * x115 - 0.6153846154 x114 * x136 + 0.9230769231 x114 * x137 
  + 0.6923076923 x115^2 + 0.9230769231 x115 * x136 - 1.384615385 x115 * x137 + 0.3076923077 x136^2 - 0.9230769231 x136 * x137 
  + 0.6923076923 x137^2 ] <= 13
 e860: [ x122^2 - 2 x122 * x136 + x136^2 ] <= 1
 e861: [ 0.5 x124^2 - x124 * x125 - x124 * x136 + x124 * x137 + 0.5 x125^2 + x125 * x136 - x125 * x137 
  + 0.5 x136^2 - x136 * x137 + 0.5 x137^2 ] <= 2
 e862: [ 0.2 x126^2 - 0.8 x126 * x127 - 0.4 x126 * x136 + 0.8 x126 * x137 + 0.8 x127^2 + 0.8 x127 * x136 
  - 1.6 x127 * x137 + 0.2 x136^2 - 0.8 x136 * x137 + 0.8 x137^2 ] <= 5
 e863: [ 0.1 x128^2 - 0.6 x128 * x129 - 0.2 x128 * x136 + 0.6 x128 * x137 + 0.9 x129^2 + 0.6 x129 * x136 
  - 1.8 x129 * x137 + 0.1 x136^2 - 0.6 x136 * x137 + 0.9 x137^2 ] <= 10
 e864: [ 0.9 x94^2 + 0.6 x94 * x95 - 1.8 x94 * x138 - 0.6 x94 * x139 + 0.1 x95^2 - 0.6 x95 * x138 - 0.2 x95 * x139 
  + 0.9 x138^2 + 0.6 x138 * x139 + 0.1 x139^2 ] <= 10
 e865: [ 0.9 x98^2 - 0.6 x98 * x99 - 1.8 x98 * x138 + 0.6 x98 * x139 + 0.1 x99^2 + 0.6 x99 * x138 - 0.2 x99 * x139 
  + 0.9 x138^2 - 0.6 x138 * x139 + 0.1 x139^2 ] <= 10
 e866: [ 0.6923076923 x100^2 - 0.9230769231 x100 * x101 - 1.384615385 x100 * x138 + 0.9230769231 x100 * x139 
  + 0.3076923077 x101^2 + 0.9230769231 x101 * x138 - 0.6153846154 x101 * x139 + 0.6923076923 x138^2 - 0.9230769231 x138 * x139 
  + 0.3076923077 x139^2 ] <= 13
 e867: [ 0.8 x108^2 + 0.8 x108 * x109 - 1.6 x108 * x138 - 0.8 x108 * x139 + 0.2 x109^2 - 0.8 x109 * x138 
  - 0.4 x109 * x139 + 0.8 x138^2 + 0.8 x138 * x139 + 0.2 x139^2 ] <= 5
 e868: [ 0.8 x112^2 - 0.8 x112 * x113 - 1.6 x112 * x138 + 0.8 x112 * x139 + 0.2 x113^2 + 0.8 x113 * x138 
  - 0.4 x113 * x139 + 0.8 x138^2 - 0.8 x138 * x139 + 0.2 x139^2 ] <= 5
 e869: [ 0.3076923077 x116^2 - 0.9230769231 x116 * x117 - 0.6153846154 x116 * x138 + 0.9230769231 x116 * x139 
  + 0.6923076923 x117^2 + 0.9230769231 x117 * x138 - 1.384615385 x117 * x139 + 0.3076923077 x138^2 - 0.9230769231 x138 * x139 
  + 0.6923076923 x139^2 ] <= 13
 e870: [ 0.5 x122^2 + x122 * x123 - x122 * x138 - x122 * x139 + 0.5 x123^2 - x123 * x138 - x123 * x139 
  + 0.5 x138^2 + x138 * x139 + 0.5 x139^2 ] <= 2
 e871: [ x124^2 - 2 x124 * x138 + x138^2 ] <= 1
 e872: [ 0.5 x126^2 - x126 * x127 - x126 * x138 + x126 * x139 + 0.5 x127^2 + x127 * x138 - x127 * x139 
  + 0.5 x138^2 - x138 * x139 + 0.5 x139^2 ] <= 2
 e873: [ 0.2 x128^2 - 0.8 x128 * x129 - 0.4 x128 * x138 + 0.8 x128 * x139 + 0.8 x129^2 + 0.8 x129 * x138 
  - 1.6 x129 * x139 + 0.2 x138^2 - 0.8 x138 * x139 + 0.8 x139^2 ] <= 5
 e874: [ 0.1 x130^2 - 0.6 x130 * x131 - 0.2 x130 * x138 + 0.6 x130 * x139 + 0.9 x131^2 + 0.6 x131 * x138 
  - 1.8 x131 * x139 + 0.1 x138^2 - 0.6 x138 * x139 + 0.9 x139^2 ] <= 10
 e875: [ x137^2 - 2 x137 * x139 + x139^2 ] <= 1
 e876: [ 0.6923076923 x94^2 + 0.9230769231 x94 * x95 - 1.384615385 x94 * x140 - 0.9230769231 x94 * x141 
  + 0.3076923077 x95^2 - 0.9230769231 x95 * x140 - 0.6153846154 x95 * x141 + 0.6923076923 x140^2 + 0.9230769231 x140 * x141 
  + 0.3076923077 x141^2 ] <= 13
 e877: [ 0.9 x96^2 + 0.6 x96 * x97 - 1.8 x96 * x140 - 0.6 x96 * x141 + 0.1 x97^2 - 0.6 x97 * x140 - 0.2 x97 * x141 
  + 0.9 x140^2 + 0.6 x140 * x141 + 0.1 x141^2 ] <= 10
 e878: [ 0.9 x100^2 - 0.6 x100 * x101 - 1.8 x100 * x140 + 0.6 x100 * x141 + 0.1 x101^2 + 0.6 x101 * x140 
  - 0.2 x101 * x141 + 0.9 x140^2 - 0.6 x140 * x141 + 0.1 x141^2 ] <= 10
 e879: [ 0.6923076923 x102^2 - 0.9230769231 x102 * x103 - 1.384615385 x102 * x140 + 0.9230769231 x102 * x141 
  + 0.3076923077 x103^2 + 0.9230769231 x103 * x140 - 0.6153846154 x103 * x141 + 0.6923076923 x140^2 - 0.9230769231 x140 * x141 
  + 0.3076923077 x141^2 ] <= 13
 e880: [ 0.8 x110^2 + 0.8 x110 * x111 - 1.6 x110 * x140 - 0.8 x110 * x141 + 0.2 x111^2 - 0.8 x111 * x140 
  - 0.4 x111 * x141 + 0.8 x140^2 + 0.8 x140 * x141 + 0.2 x141^2 ] <= 5
 e881: [ 0.8 x114^2 - 0.8 x114 * x115 - 1.6 x114 * x140 + 0.8 x114 * x141 + 0.2 x115^2 + 0.8 x115 * x140 
  - 0.4 x115 * x141 + 0.8 x140^2 - 0.8 x140 * x141 + 0.2 x141^2 ] <= 5
 e882: [ 0.3076923077 x118^2 - 0.9230769231 x118 * x119 - 0.6153846154 x118 * x140 + 0.9230769231 x118 * x141 
  + 0.6923076923 x119^2 + 0.9230769231 x119 * x140 - 1.384615385 x119 * x141 + 0.3076923077 x140^2 - 0.9230769231 x140 * x141 
  + 0.6923076923 x141^2 ] <= 13
 e883: [ 0.2 x122^2 + 0.8 x122 * x123 - 0.4 x122 * x140 - 0.8 x122 * x141 + 0.8 x123^2 - 0.8 x123 * x140 
  - 1.6 x123 * x141 + 0.2 x140^2 + 0.8 x140 * x141 + 0.8 x141^2 ] <= 5
 e884: [ 0.5 x124^2 + x124 * x125 - x124 * x140 - x124 * x141 + 0.5 x125^2 - x125 * x140 - x125 * x141 
  + 0.5 x140^2 + x140 * x141 + 0.5 x141^2 ] <= 2
 e885: [ x126^2 - 2 x126 * x140 + x140^2 ] <= 1
 e886: [ 0.5 x128^2 - x128 * x129 - x128 * x140 + x128 * x141 + 0.5 x129^2 + x129 * x140 - x129 * x141 
  + 0.5 x140^2 - x140 * x141 + 0.5 x141^2 ] <= 2
 e887: [ 0.2 x130^2 - 0.8 x130 * x131 - 0.4 x130 * x140 + 0.8 x130 * x141 + 0.8 x131^2 + 0.8 x131 * x140 
  - 1.6 x131 * x141 + 0.2 x140^2 - 0.8 x140 * x141 + 0.8 x141^2 ] <= 5
 e888: [ 0.1 x132^2 - 0.6 x132 * x133 - 0.2 x132 * x140 + 0.6 x132 * x141 + 0.9 x133^2 + 0.6 x133 * x140 
  - 1.8 x133 * x141 + 0.1 x140^2 - 0.6 x140 * x141 + 0.9 x141^2 ] <= 10
 e889: [ x137^2 - 2 x137 * x141 + x141^2 ] <= 4
 e890: [ x139^2 - 2 x139 * x141 + x141^2 ] <= 1
 e891: [ 0.6923076923 x96^2 + 0.9230769231 x96 * x97 - 1.384615385 x96 * x142 - 0.9230769231 x96 * x143 
  + 0.3076923077 x97^2 - 0.9230769231 x97 * x142 - 0.6153846154 x97 * x143 + 0.6923076923 x142^2 + 0.9230769231 x142 * x143 
  + 0.3076923077 x143^2 ] <= 13
 e892: [ 0.9 x98^2 + 0.6 x98 * x99 - 1.8 x98 * x142 - 0.6 x98 * x143 + 0.1 x99^2 - 0.6 x99 * x142 - 0.2 x99 * x143 
  + 0.9 x142^2 + 0.6 x142 * x143 + 0.1 x143^2 ] <= 10
 e893: [ 0.9 x102^2 - 0.6 x102 * x103 - 1.8 x102 * x142 + 0.6 x102 * x143 + 0.1 x103^2 + 0.6 x103 * x142 
  - 0.2 x103 * x143 + 0.9 x142^2 - 0.6 x142 * x143 + 0.1 x143^2 ] <= 10
 e894: [ 0.6923076923 x104^2 - 0.9230769231 x104 * x105 - 1.384615385 x104 * x142 + 0.9230769231 x104 * x143 
  + 0.3076923077 x105^2 + 0.9230769231 x105 * x142 - 0.6153846154 x105 * x143 + 0.6923076923 x142^2 - 0.9230769231 x142 * x143 
  + 0.3076923077 x143^2 ] <= 13
 e895: [ 0.3076923077 x108^2 + 0.9230769231 x108 * x109 - 0.6153846154 x108 * x142 - 0.9230769231 x108 * x143 
  + 0.6923076923 x109^2 - 0.9230769231 x109 * x142 - 1.384615385 x109 * x143 + 0.3076923077 x142^2 + 0.9230769231 x142 * x143 
  + 0.6923076923 x143^2 ] <= 13
 e896: [ 0.8 x112^2 + 0.8 x112 * x113 - 1.6 x112 * x142 - 0.8 x112 * x143 + 0.2 x113^2 - 0.8 x113 * x142 
  - 0.4 x113 * x143 + 0.8 x142^2 + 0.8 x142 * x143 + 0.2 x143^2 ] <= 5
 e897: [ 0.8 x116^2 - 0.8 x116 * x117 - 1.6 x116 * x142 + 0.8 x116 * x143 + 0.2 x117^2 + 0.8 x117 * x142 
  - 0.4 x117 * x143 + 0.8 x142^2 - 0.8 x142 * x143 + 0.2 x143^2 ] <= 5
 e898: [ 0.3076923077 x120^2 - 0.9230769231 x120 * x121 - 0.6153846154 x120 * x142 + 0.9230769231 x120 * x143 
  + 0.6923076923 x121^2 + 0.9230769231 x121 * x142 - 1.384615385 x121 * x143 + 0.3076923077 x142^2 - 0.9230769231 x142 * x143 
  + 0.6923076923 x143^2 ] <= 13
 e899: [ 0.1 x122^2 + 0.6 x122 * x123 - 0.2 x122 * x142 - 0.6 x122 * x143 + 0.9 x123^2 - 0.6 x123 * x142 
  - 1.8 x123 * x143 + 0.1 x142^2 + 0.6 x142 * x143 + 0.9 x143^2 ] <= 10
 e900: [ 0.2 x124^2 + 0.8 x124 * x125 - 0.4 x124 * x142 - 0.8 x124 * x143 + 0.8 x125^2 - 0.8 x125 * x142 
  - 1.6 x125 * x143 + 0.2 x142^2 + 0.8 x142 * x143 + 0.8 x143^2 ] <= 5
 e901: [ 0.5 x126^2 + x126 * x127 - x126 * x142 - x126 * x143 + 0.5 x127^2 - x127 * x142 - x127 * x143 
  + 0.5 x142^2 + x142 * x143 + 0.5 x143^2 ] <= 2
 e902: [ x128^2 - 2 x128 * x142 + x142^2 ] <= 1
 e903: [ 0.5 x130^2 - x130 * x131 - x130 * x142 + x130 * x143 + 0.5 x131^2 + x131 * x142 - x131 * x143 
  + 0.5 x142^2 - x142 * x143 + 0.5 x143^2 ] <= 2
 e904: [ 0.2 x132^2 - 0.8 x132 * x133 - 0.4 x132 * x142 + 0.8 x132 * x143 + 0.8 x133^2 + 0.8 x133 * x142 
  - 1.6 x133 * x143 + 0.2 x142^2 - 0.8 x142 * x143 + 0.8 x143^2 ] <= 5
 e905: [ 0.1 x134^2 - 0.6 x134 * x135 - 0.2 x134 * x142 + 0.6 x134 * x143 + 0.9 x135^2 + 0.6 x135 * x142 
  - 1.8 x135 * x143 + 0.1 x142^2 - 0.6 x142 * x143 + 0.9 x143^2 ] <= 10
 e906: [ x137^2 - 2 x137 * x143 + x143^2 ] <= 9
 e907: [ x139^2 - 2 x139 * x143 + x143^2 ] <= 4
 e908: [ x141^2 - 2 x141 * x143 + x143^2 ] <= 1
 e909: [ 0.6923076923 x98^2 + 0.9230769231 x98 * x99 - 1.384615385 x98 * x144 - 0.9230769231 x98 * x145 
  + 0.3076923077 x99^2 - 0.9230769231 x99 * x144 - 0.6153846154 x99 * x145 + 0.6923076923 x144^2 + 0.9230769231 x144 * x145 
  + 0.3076923077 x145^2 ] <= 13
 e910: [ 0.9 x100^2 + 0.6 x100 * x101 - 1.8 x100 * x144 - 0.6 x100 * x145 + 0.1 x101^2 - 0.6 x101 * x144 
  - 0.2 x101 * x145 + 0.9 x144^2 + 0.6 x144 * x145 + 0.1 x145^2 ] <= 10
 e911: [ 0.9 x104^2 - 0.6 x104 * x105 - 1.8 x104 * x144 + 0.6 x104 * x145 + 0.1 x105^2 + 0.6 x105 * x144 
  - 0.2 x105 * x145 + 0.9 x144^2 - 0.6 x144 * x145 + 0.1 x145^2 ] <= 10
 e912: [ 0.6923076923 x106^2 - 0.9230769231 x106 * x107 - 1.384615385 x106 * x144 + 0.9230769231 x106 * x145 
  + 0.3076923077 x107^2 + 0.9230769231 x107 * x144 - 0.6153846154 x107 * x145 + 0.6923076923 x144^2 - 0.9230769231 x144 * x145 
  + 0.3076923077 x145^2 ] <= 13
 e913: [ 0.3076923077 x110^2 + 0.9230769231 x110 * x111 - 0.6153846154 x110 * x144 - 0.9230769231 x110 * x145 
  + 0.6923076923 x111^2 - 0.9230769231 x111 * x144 - 1.384615385 x111 * x145 + 0.3076923077 x144^2 + 0.9230769231 x144 * x145 
  + 0.6923076923 x145^2 ] <= 13
 e914: [ 0.8 x114^2 + 0.8 x114 * x115 - 1.6 x114 * x144 - 0.8 x114 * x145 + 0.2 x115^2 - 0.8 x115 * x144 
  - 0.4 x115 * x145 + 0.8 x144^2 + 0.8 x144 * x145 + 0.2 x145^2 ] <= 5
 e915: [ 0.8 x118^2 - 0.8 x118 * x119 - 1.6 x118 * x144 + 0.8 x118 * x145 + 0.2 x119^2 + 0.8 x119 * x144 
  - 0.4 x119 * x145 + 0.8 x144^2 - 0.8 x144 * x145 + 0.2 x145^2 ] <= 5
 e916: [ 0.1 x124^2 + 0.6 x124 * x125 - 0.2 x124 * x144 - 0.6 x124 * x145 + 0.9 x125^2 - 0.6 x125 * x144 
  - 1.8 x125 * x145 + 0.1 x144^2 + 0.6 x144 * x145 + 0.9 x145^2 ] <= 10
 e917: [ 0.2 x126^2 + 0.8 x126 * x127 - 0.4 x126 * x144 - 0.8 x126 * x145 + 0.8 x127^2 - 0.8 x127 * x144 
  - 1.6 x127 * x145 + 0.2 x144^2 + 0.8 x144 * x145 + 0.8 x145^2 ] <= 5
 e918: [ 0.5 x128^2 + x128 * x129 - x128 * x144 - x128 * x145 + 0.5 x129^2 - x129 * x144 - x129 * x145 
  + 0.5 x144^2 + x144 * x145 + 0.5 x145^2 ] <= 2
 e919: [ x130^2 - 2 x130 * x144 + x144^2 ] <= 1
 e920: [ 0.5 x132^2 - x132 * x133 - x132 * x144 + x132 * x145 + 0.5 x133^2 + x133 * x144 - x133 * x145 
  + 0.5 x144^2 - x144 * x145 + 0.5 x145^2 ] <= 2
 e921: [ 0.2 x134^2 - 0.8 x134 * x135 - 0.4 x134 * x144 + 0.8 x134 * x145 + 0.8 x135^2 + 0.8 x135 * x144 
  - 1.6 x135 * x145 + 0.2 x144^2 - 0.8 x144 * x145 + 0.8 x145^2 ] <= 5
 e922: [ x137^2 - 2 x137 * x145 + x145^2 ] <= 16
 e923: [ x139^2 - 2 x139 * x145 + x145^2 ] <= 9
 e924: [ x141^2 - 2 x141 * x145 + x145^2 ] <= 4
 e925: [ x143^2 - 2 x143 * x145 + x145^2 ] <= 1
 e926: [ 0.6923076923 x100^2 + 0.9230769231 x100 * x101 - 1.384615385 x100 * x146 - 0.9230769231 x100 * x147 
  + 0.3076923077 x101^2 - 0.9230769231 x101 * x146 - 0.6153846154 x101 * x147 + 0.6923076923 x146^2 + 0.9230769231 x146 * x147 
  + 0.3076923077 x147^2 ] <= 13
 e927: [ 0.9 x102^2 + 0.6 x102 * x103 - 1.8 x102 * x146 - 0.6 x102 * x147 + 0.1 x103^2 - 0.6 x103 * x146 
  - 0.2 x103 * x147 + 0.9 x146^2 + 0.6 x146 * x147 + 0.1 x147^2 ] <= 10
 e928: [ 0.9 x106^2 - 0.6 x106 * x107 - 1.8 x106 * x146 + 0.6 x106 * x147 + 0.1 x107^2 + 0.6 x107 * x146 
  - 0.2 x107 * x147 + 0.9 x146^2 - 0.6 x146 * x147 + 0.1 x147^2 ] <= 10
 e929: [ 0.3076923077 x112^2 + 0.9230769231 x112 * x113 - 0.6153846154 x112 * x146 - 0.9230769231 x112 * x147 
  + 0.6923076923 x113^2 - 0.9230769231 x113 * x146 - 1.384615385 x113 * x147 + 0.3076923077 x146^2 + 0.9230769231 x146 * x147 
  + 0.6923076923 x147^2 ] <= 13
 e930: [ 0.8 x116^2 + 0.8 x116 * x117 - 1.6 x116 * x146 - 0.8 x116 * x147 + 0.2 x117^2 - 0.8 x117 * x146 
  - 0.4 x117 * x147 + 0.8 x146^2 + 0.8 x146 * x147 + 0.2 x147^2 ] <= 5
 e931: [ 0.8 x120^2 - 0.8 x120 * x121 - 1.6 x120 * x146 + 0.8 x120 * x147 + 0.2 x121^2 + 0.8 x121 * x146 
  - 0.4 x121 * x147 + 0.8 x146^2 - 0.8 x146 * x147 + 0.2 x147^2 ] <= 5
 e932: [ 0.1 x126^2 + 0.6 x126 * x127 - 0.2 x126 * x146 - 0.6 x126 * x147 + 0.9 x127^2 - 0.6 x127 * x146 
  - 1.8 x127 * x147 + 0.1 x146^2 + 0.6 x146 * x147 + 0.9 x147^2 ] <= 10
 e933: [ 0.2 x128^2 + 0.8 x128 * x129 - 0.4 x128 * x146 - 0.8 x128 * x147 + 0.8 x129^2 - 0.8 x129 * x146 
  - 1.6 x129 * x147 + 0.2 x146^2 + 0.8 x146 * x147 + 0.8 x147^2 ] <= 5
 e934: [ 0.5 x130^2 + x130 * x131 - x130 * x146 - x130 * x147 + 0.5 x131^2 - x131 * x146 - x131 * x147 
  + 0.5 x146^2 + x146 * x147 + 0.5 x147^2 ] <= 2
 e935: [ x132^2 - 2 x132 * x146 + x146^2 ] <= 1
 e936: [ 0.5 x134^2 - x134 * x135 - x134 * x146 + x134 * x147 + 0.5 x135^2 + x135 * x146 - x135 * x147 
  + 0.5 x146^2 - x146 * x147 + 0.5 x147^2 ] <= 2
 e937: [ x137^2 - 2 x137 * x147 + x147^2 ] <= 25
 e938: [ x139^2 - 2 x139 * x147 + x147^2 ] <= 16
 e939: [ x141^2 - 2 x141 * x147 + x147^2 ] <= 9
 e940: [ x143^2 - 2 x143 * x147 + x147^2 ] <= 4
 e941: [ x145^2 - 2 x145 * x147 + x147^2 ] <= 1
 e942: [ 0.6923076923 x102^2 + 0.9230769231 x102 * x103 - 1.384615385 x102 * x148 - 0.9230769231 x102 * x149 
  + 0.3076923077 x103^2 - 0.9230769231 x103 * x148 - 0.6153846154 x103 * x149 + 0.6923076923 x148^2 + 0.9230769231 x148 * x149 
  + 0.3076923077 x149^2 ] <= 13
 e943: [ 0.9 x104^2 + 0.6 x104 * x105 - 1.8 x104 * x148 - 0.6 x104 * x149 + 0.1 x105^2 - 0.6 x105 * x148 
  - 0.2 x105 * x149 + 0.9 x148^2 + 0.6 x148 * x149 + 0.1 x149^2 ] <= 10
 e944: [ 0.3076923077 x114^2 + 0.9230769231 x114 * x115 - 0.6153846154 x114 * x148 - 0.9230769231 x114 * x149 
  + 0.6923076923 x115^2 - 0.9230769231 x115 * x148 - 1.384615385 x115 * x149 + 0.3076923077 x148^2 + 0.9230769231 x148 * x149 
  + 0.6923076923 x149^2 ] <= 13
 e945: [ 0.8 x118^2 + 0.8 x118 * x119 - 1.6 x118 * x148 - 0.8 x118 * x149 + 0.2 x119^2 - 0.8 x119 * x148 
  - 0.4 x119 * x149 + 0.8 x148^2 + 0.8 x148 * x149 + 0.2 x149^2 ] <= 5
 e946: [ 0.1 x128^2 + 0.6 x128 * x129 - 0.2 x128 * x148 - 0.6 x128 * x149 + 0.9 x129^2 - 0.6 x129 * x148 
  - 1.8 x129 * x149 + 0.1 x148^2 + 0.6 x148 * x149 + 0.9 x149^2 ] <= 10
 e947: [ 0.2 x130^2 + 0.8 x130 * x131 - 0.4 x130 * x148 - 0.8 x130 * x149 + 0.8 x131^2 - 0.8 x131 * x148 
  - 1.6 x131 * x149 + 0.2 x148^2 + 0.8 x148 * x149 + 0.8 x149^2 ] <= 5
 e948: [ 0.5 x132^2 + x132 * x133 - x132 * x148 - x132 * x149 + 0.5 x133^2 - x133 * x148 - x133 * x149 
  + 0.5 x148^2 + x148 * x149 + 0.5 x149^2 ] <= 2
 e949: [ x134^2 - 2 x134 * x148 + x148^2 ] <= 1
 e950: [ x137^2 - 2 x137 * x149 + x149^2 ] <= 36
 e951: [ x139^2 - 2 x139 * x149 + x149^2 ] <= 25
 e952: [ x141^2 - 2 x141 * x149 + x149^2 ] <= 16
 e953: [ x143^2 - 2 x143 * x149 + x149^2 ] <= 9
 e954: [ x145^2 - 2 x145 * x149 + x149^2 ] <= 4
 e955: [ x147^2 - 2 x147 * x149 + x149^2 ] <= 1
 e956: [ 0.9 x110^2 - 0.6 x110 * x111 - 1.8 x110 * x150 + 0.6 x110 * x151 + 0.1 x111^2 + 0.6 x111 * x150 
  - 0.2 x111 * x151 + 0.9 x150^2 - 0.6 x150 * x151 + 0.1 x151^2 ] <= 10
 e957: [ 0.6923076923 x112^2 - 0.9230769231 x112 * x113 - 1.384615385 x112 * x150 + 0.9230769231 x112 * x151 
  + 0.3076923077 x113^2 + 0.9230769231 x113 * x150 - 0.6153846154 x113 * x151 + 0.6923076923 x150^2 - 0.9230769231 x150 * x151 
  + 0.3076923077 x151^2 ] <= 13
 e958: [ 0.8 x124^2 - 0.8 x124 * x125 - 1.6 x124 * x150 + 0.8 x124 * x151 + 0.2 x125^2 + 0.8 x125 * x150 
  - 0.4 x125 * x151 + 0.8 x150^2 - 0.8 x150 * x151 + 0.2 x151^2 ] <= 5
 e959: [ 0.3076923077 x128^2 - 0.9230769231 x128 * x129 - 0.6153846154 x128 * x150 + 0.9230769231 x128 * x151 
  + 0.6923076923 x129^2 + 0.9230769231 x129 * x150 - 1.384615385 x129 * x151 + 0.3076923077 x150^2 - 0.9230769231 x150 * x151 
  + 0.6923076923 x151^2 ] <= 13
 e960: [ x136^2 - 2 x136 * x150 + x150^2 ] <= 1
 e961: [ 0.5 x138^2 - x138 * x139 - x138 * x150 + x138 * x151 + 0.5 x139^2 + x139 * x150 - x139 * x151 
  + 0.5 x150^2 - x150 * x151 + 0.5 x151^2 ] <= 2
 e962: [ 0.2 x140^2 - 0.8 x140 * x141 - 0.4 x140 * x150 + 0.8 x140 * x151 + 0.8 x141^2 + 0.8 x141 * x150 
  - 1.6 x141 * x151 + 0.2 x150^2 - 0.8 x150 * x151 + 0.8 x151^2 ] <= 5
 e963: [ 0.1 x142^2 - 0.6 x142 * x143 - 0.2 x142 * x150 + 0.6 x142 * x151 + 0.9 x143^2 + 0.6 x143 * x150 
  - 1.8 x143 * x151 + 0.1 x150^2 - 0.6 x150 * x151 + 0.9 x151^2 ] <= 10
 e964: [ 0.9 x108^2 + 0.6 x108 * x109 - 1.8 x108 * x152 - 0.6 x108 * x153 + 0.1 x109^2 - 0.6 x109 * x152 
  - 0.2 x109 * x153 + 0.9 x152^2 + 0.6 x152 * x153 + 0.1 x153^2 ] <= 10
 e965: [ 0.9 x112^2 - 0.6 x112 * x113 - 1.8 x112 * x152 + 0.6 x112 * x153 + 0.1 x113^2 + 0.6 x113 * x152 
  - 0.2 x113 * x153 + 0.9 x152^2 - 0.6 x152 * x153 + 0.1 x153^2 ] <= 10
 e966: [ 0.6923076923 x114^2 - 0.9230769231 x114 * x115 - 1.384615385 x114 * x152 + 0.9230769231 x114 * x153 
  + 0.3076923077 x115^2 + 0.9230769231 x115 * x152 - 0.6153846154 x115 * x153 + 0.6923076923 x152^2 - 0.9230769231 x152 * x153 
  + 0.3076923077 x153^2 ] <= 13
 e967: [ 0.8 x122^2 + 0.8 x122 * x123 - 1.6 x122 * x152 - 0.8 x122 * x153 + 0.2 x123^2 - 0.8 x123 * x152 
  - 0.4 x123 * x153 + 0.8 x152^2 + 0.8 x152 * x153 + 0.2 x153^2 ] <= 5
 e968: [ 0.8 x126^2 - 0.8 x126 * x127 - 1.6 x126 * x152 + 0.8 x126 * x153 + 0.2 x127^2 + 0.8 x127 * x152 
  - 0.4 x127 * x153 + 0.8 x152^2 - 0.8 x152 * x153 + 0.2 x153^2 ] <= 5
 e969: [ 0.3076923077 x130^2 - 0.9230769231 x130 * x131 - 0.6153846154 x130 * x152 + 0.9230769231 x130 * x153 
  + 0.6923076923 x131^2 + 0.9230769231 x131 * x152 - 1.384615385 x131 * x153 + 0.3076923077 x152^2 - 0.9230769231 x152 * x153 
  + 0.6923076923 x153^2 ] <= 13
 e970: [ 0.5 x136^2 + x136 * x137 - x136 * x152 - x136 * x153 + 0.5 x137^2 - x137 * x152 - x137 * x153 
  + 0.5 x152^2 + x152 * x153 + 0.5 x153^2 ] <= 2
 e971: [ x138^2 - 2 x138 * x152 + x152^2 ] <= 1
 e972: [ 0.5 x140^2 - x140 * x141 - x140 * x152 + x140 * x153 + 0.5 x141^2 + x141 * x152 - x141 * x153 
  + 0.5 x152^2 - x152 * x153 + 0.5 x153^2 ] <= 2
 e973: [ 0.2 x142^2 - 0.8 x142 * x143 - 0.4 x142 * x152 + 0.8 x142 * x153 + 0.8 x143^2 + 0.8 x143 * x152 
  - 1.6 x143 * x153 + 0.2 x152^2 - 0.8 x152 * x153 + 0.8 x153^2 ] <= 5
 e974: [ 0.1 x144^2 - 0.6 x144 * x145 - 0.2 x144 * x152 + 0.6 x144 * x153 + 0.9 x145^2 + 0.6 x145 * x152 
  - 1.8 x145 * x153 + 0.1 x152^2 - 0.6 x152 * x153 + 0.9 x153^2 ] <= 10
 e975: [ x151^2 - 2 x151 * x153 + x153^2 ] <= 1
 e976: [ 0.6923076923 x108^2 + 0.9230769231 x108 * x109 - 1.384615385 x108 * x154 - 0.9230769231 x108 * x155 
  + 0.3076923077 x109^2 - 0.9230769231 x109 * x154 - 0.6153846154 x109 * x155 + 0.6923076923 x154^2 + 0.9230769231 x154 * x155 
  + 0.3076923077 x155^2 ] <= 13
 e977: [ 0.9 x110^2 + 0.6 x110 * x111 - 1.8 x110 * x154 - 0.6 x110 * x155 + 0.1 x111^2 - 0.6 x111 * x154 
  - 0.2 x111 * x155 + 0.9 x154^2 + 0.6 x154 * x155 + 0.1 x155^2 ] <= 10
 e978: [ 0.9 x114^2 - 0.6 x114 * x115 - 1.8 x114 * x154 + 0.6 x114 * x155 + 0.1 x115^2 + 0.6 x115 * x154 
  - 0.2 x115 * x155 + 0.9 x154^2 - 0.6 x154 * x155 + 0.1 x155^2 ] <= 10
 e979: [ 0.6923076923 x116^2 - 0.9230769231 x116 * x117 - 1.384615385 x116 * x154 + 0.9230769231 x116 * x155 
  + 0.3076923077 x117^2 + 0.9230769231 x117 * x154 - 0.6153846154 x117 * x155 + 0.6923076923 x154^2 - 0.9230769231 x154 * x155 
  + 0.3076923077 x155^2 ] <= 13
 e980: [ 0.8 x124^2 + 0.8 x124 * x125 - 1.6 x124 * x154 - 0.8 x124 * x155 + 0.2 x125^2 - 0.8 x125 * x154 
  - 0.4 x125 * x155 + 0.8 x154^2 + 0.8 x154 * x155 + 0.2 x155^2 ] <= 5
 e981: [ 0.8 x128^2 - 0.8 x128 * x129 - 1.6 x128 * x154 + 0.8 x128 * x155 + 0.2 x129^2 + 0.8 x129 * x154 
  - 0.4 x129 * x155 + 0.8 x154^2 - 0.8 x154 * x155 + 0.2 x155^2 ] <= 5
 e982: [ 0.3076923077 x132^2 - 0.9230769231 x132 * x133 - 0.6153846154 x132 * x154 + 0.9230769231 x132 * x155 
  + 0.6923076923 x133^2 + 0.9230769231 x133 * x154 - 1.384615385 x133 * x155 + 0.3076923077 x154^2 - 0.9230769231 x154 * x155 
  + 0.6923076923 x155^2 ] <= 13
 e983: [ 0.2 x136^2 + 0.8 x136 * x137 - 0.4 x136 * x154 - 0.8 x136 * x155 + 0.8 x137^2 - 0.8 x137 * x154 
  - 1.6 x137 * x155 + 0.2 x154^2 + 0.8 x154 * x155 + 0.8 x155^2 ] <= 5
 e984: [ 0.5 x138^2 + x138 * x139 - x138 * x154 - x138 * x155 + 0.5 x139^2 - x139 * x154 - x139 * x155 
  + 0.5 x154^2 + x154 * x155 + 0.5 x155^2 ] <= 2
 e985: [ x140^2 - 2 x140 * x154 + x154^2 ] <= 1
 e986: [ 0.5 x142^2 - x142 * x143 - x142 * x154 + x142 * x155 + 0.5 x143^2 + x143 * x154 - x143 * x155 
  + 0.5 x154^2 - x154 * x155 + 0.5 x155^2 ] <= 2
 e987: [ 0.2 x144^2 - 0.8 x144 * x145 - 0.4 x144 * x154 + 0.8 x144 * x155 + 0.8 x145^2 + 0.8 x145 * x154 
  - 1.6 x145 * x155 + 0.2 x154^2 - 0.8 x154 * x155 + 0.8 x155^2 ] <= 5
 e988: [ 0.1 x146^2 - 0.6 x146 * x147 - 0.2 x146 * x154 + 0.6 x146 * x155 + 0.9 x147^2 + 0.6 x147 * x154 
  - 1.8 x147 * x155 + 0.1 x154^2 - 0.6 x154 * x155 + 0.9 x155^2 ] <= 10
 e989: [ x151^2 - 2 x151 * x155 + x155^2 ] <= 4
 e990: [ x153^2 - 2 x153 * x155 + x155^2 ] <= 1
 e991: [ 0.6923076923 x110^2 + 0.9230769231 x110 * x111 - 1.384615385 x110 * x156 - 0.9230769231 x110 * x157 
  + 0.3076923077 x111^2 - 0.9230769231 x111 * x156 - 0.6153846154 x111 * x157 + 0.6923076923 x156^2 + 0.9230769231 x156 * x157 
  + 0.3076923077 x157^2 ] <= 13
 e992: [ 0.9 x112^2 + 0.6 x112 * x113 - 1.8 x112 * x156 - 0.6 x112 * x157 + 0.1 x113^2 - 0.6 x113 * x156 
  - 0.2 x113 * x157 + 0.9 x156^2 + 0.6 x156 * x157 + 0.1 x157^2 ] <= 10
 e993: [ 0.9 x116^2 - 0.6 x116 * x117 - 1.8 x116 * x156 + 0.6 x116 * x157 + 0.1 x117^2 + 0.6 x117 * x156 
  - 0.2 x117 * x157 + 0.9 x156^2 - 0.6 x156 * x157 + 0.1 x157^2 ] <= 10
 e994: [ 0.6923076923 x118^2 - 0.9230769231 x118 * x119 - 1.384615385 x118 * x156 + 0.9230769231 x118 * x157 
  + 0.3076923077 x119^2 + 0.9230769231 x119 * x156 - 0.6153846154 x119 * x157 + 0.6923076923 x156^2 - 0.9230769231 x156 * x157 
  + 0.3076923077 x157^2 ] <= 13
 e995: [ 0.3076923077 x122^2 + 0.9230769231 x122 * x123 - 0.6153846154 x122 * x156 - 0.9230769231 x122 * x157 
  + 0.6923076923 x123^2 - 0.9230769231 x123 * x156 - 1.384615385 x123 * x157 + 0.3076923077 x156^2 + 0.9230769231 x156 * x157 
  + 0.6923076923 x157^2 ] <= 13
 e996: [ 0.8 x126^2 + 0.8 x126 * x127 - 1.6 x126 * x156 - 0.8 x126 * x157 + 0.2 x127^2 - 0.8 x127 * x156 
  - 0.4 x127 * x157 + 0.8 x156^2 + 0.8 x156 * x157 + 0.2 x157^2 ] <= 5
 e997: [ 0.8 x130^2 - 0.8 x130 * x131 - 1.6 x130 * x156 + 0.8 x130 * x157 + 0.2 x131^2 + 0.8 x131 * x156 
  - 0.4 x131 * x157 + 0.8 x156^2 - 0.8 x156 * x157 + 0.2 x157^2 ] <= 5
 e998: [ 0.3076923077 x134^2 - 0.9230769231 x134 * x135 - 0.6153846154 x134 * x156 + 0.9230769231 x134 * x157 
  + 0.6923076923 x135^2 + 0.9230769231 x135 * x156 - 1.384615385 x135 * x157 + 0.3076923077 x156^2 - 0.9230769231 x156 * x157 
  + 0.6923076923 x157^2 ] <= 13
 e999: [ 0.1 x136^2 + 0.6 x136 * x137 - 0.2 x136 * x156 - 0.6 x136 * x157 + 0.9 x137^2 - 0.6 x137 * x156 
  - 1.8 x137 * x157 + 0.1 x156^2 + 0.6 x156 * x157 + 0.9 x157^2 ] <= 10
 e1000: [ 0.2 x138^2 + 0.8 x138 * x139 - 0.4 x138 * x156 - 0.8 x138 * x157 + 0.8 x139^2 - 0.8 x139 * x156 
  - 1.6 x139 * x157 + 0.2 x156^2 + 0.8 x156 * x157 + 0.8 x157^2 ] <= 5
 e1001: [ 0.5 x140^2 + x140 * x141 - x140 * x156 - x140 * x157 + 0.5 x141^2 - x141 * x156 - x141 * x157 
  + 0.5 x156^2 + x156 * x157 + 0.5 x157^2 ] <= 2
 e1002: [ x142^2 - 2 x142 * x156 + x156^2 ] <= 1
 e1003: [ 0.5 x144^2 - x144 * x145 - x144 * x156 + x144 * x157 + 0.5 x145^2 + x145 * x156 - x145 * x157 
  + 0.5 x156^2 - x156 * x157 + 0.5 x157^2 ] <= 2
 e1004: [ 0.2 x146^2 - 0.8 x146 * x147 - 0.4 x146 * x156 + 0.8 x146 * x157 + 0.8 x147^2 + 0.8 x147 * x156 
  - 1.6 x147 * x157 + 0.2 x156^2 - 0.8 x156 * x157 + 0.8 x157^2 ] <= 5
 e1005: [ 0.1 x148^2 - 0.6 x148 * x149 - 0.2 x148 * x156 + 0.6 x148 * x157 + 0.9 x149^2 + 0.6 x149 * x156 
  - 1.8 x149 * x157 + 0.1 x156^2 - 0.6 x156 * x157 + 0.9 x157^2 ] <= 10
 e1006: [ x151^2 - 2 x151 * x157 + x157^2 ] <= 9
 e1007: [ x153^2 - 2 x153 * x157 + x157^2 ] <= 4
 e1008: [ x155^2 - 2 x155 * x157 + x157^2 ] <= 1
 e1009: [ 0.6923076923 x112^2 + 0.9230769231 x112 * x113 - 1.384615385 x112 * x158 - 0.9230769231 x112 * x159 
  + 0.3076923077 x113^2 - 0.9230769231 x113 * x158 - 0.6153846154 x113 * x159 + 0.6923076923 x158^2 + 0.9230769231 x158 * x159 
  + 0.3076923077 x159^2 ] <= 13
 e1010: [ 0.9 x114^2 + 0.6 x114 * x115 - 1.8 x114 * x158 - 0.6 x114 * x159 + 0.1 x115^2 - 0.6 x115 * x158 
  - 0.2 x115 * x159 + 0.9 x158^2 + 0.6 x158 * x159 + 0.1 x159^2 ] <= 10
 e1011: [ 0.9 x118^2 - 0.6 x118 * x119 - 1.8 x118 * x158 + 0.6 x118 * x159 + 0.1 x119^2 + 0.6 x119 * x158 
  - 0.2 x119 * x159 + 0.9 x158^2 - 0.6 x158 * x159 + 0.1 x159^2 ] <= 10
 e1012: [ 0.6923076923 x120^2 - 0.9230769231 x120 * x121 - 1.384615385 x120 * x158 + 0.9230769231 x120 * x159 
  + 0.3076923077 x121^2 + 0.9230769231 x121 * x158 - 0.6153846154 x121 * x159 + 0.6923076923 x158^2 - 0.9230769231 x158 * x159 
  + 0.3076923077 x159^2 ] <= 13
 e1013: [ 0.3076923077 x124^2 + 0.9230769231 x124 * x125 - 0.6153846154 x124 * x158 - 0.9230769231 x124 * x159 
  + 0.6923076923 x125^2 - 0.9230769231 x125 * x158 - 1.384615385 x125 * x159 + 0.3076923077 x158^2 + 0.9230769231 x158 * x159 
  + 0.6923076923 x159^2 ] <= 13
 e1014: [ 0.8 x128^2 + 0.8 x128 * x129 - 1.6 x128 * x158 - 0.8 x128 * x159 + 0.2 x129^2 - 0.8 x129 * x158 
  - 0.4 x129 * x159 + 0.8 x158^2 + 0.8 x158 * x159 + 0.2 x159^2 ] <= 5
 e1015: [ 0.8 x132^2 - 0.8 x132 * x133 - 1.6 x132 * x158 + 0.8 x132 * x159 + 0.2 x133^2 + 0.8 x133 * x158 
  - 0.4 x133 * x159 + 0.8 x158^2 - 0.8 x158 * x159 + 0.2 x159^2 ] <= 5
 e1016: [ 0.1 x138^2 + 0.6 x138 * x139 - 0.2 x138 * x158 - 0.6 x138 * x159 + 0.9 x139^2 - 0.6 x139 * x158 
  - 1.8 x139 * x159 + 0.1 x158^2 + 0.6 x158 * x159 + 0.9 x159^2 ] <= 10
 e1017: [ 0.2 x140^2 + 0.8 x140 * x141 - 0.4 x140 * x158 - 0.8 x140 * x159 + 0.8 x141^2 - 0.8 x141 * x158 
  - 1.6 x141 * x159 + 0.2 x158^2 + 0.8 x158 * x159 + 0.8 x159^2 ] <= 5
 e1018: [ 0.5 x142^2 + x142 * x143 - x142 * x158 - x142 * x159 + 0.5 x143^2 - x143 * x158 - x143 * x159 
  + 0.5 x158^2 + x158 * x159 + 0.5 x159^2 ] <= 2
 e1019: [ x144^2 - 2 x144 * x158 + x158^2 ] <= 1
 e1020: [ 0.5 x146^2 - x146 * x147 - x146 * x158 + x146 * x159 + 0.5 x147^2 + x147 * x158 - x147 * x159 
  + 0.5 x158^2 - x158 * x159 + 0.5 x159^2 ] <= 2
 e1021: [ 0.2 x148^2 - 0.8 x148 * x149 - 0.4 x148 * x158 + 0.8 x148 * x159 + 0.8 x149^2 + 0.8 x149 * x158 
  - 1.6 x149 * x159 + 0.2 x158^2 - 0.8 x158 * x159 + 0.8 x159^2 ] <= 5
 e1022: [ x151^2 - 2 x151 * x159 + x159^2 ] <= 16
 e1023: [ x153^2 - 2 x153 * x159 + x159^2 ] <= 9
 e1024: [ x155^2 - 2 x155 * x159 + x159^2 ] <= 4
 e1025: [ x157^2 - 2 x157 * x159 + x159^2 ] <= 1
 e1026: [ 0.6923076923 x114^2 + 0.9230769231 x114 * x115 - 1.384615385 x114 * x160 - 0.9230769231 x114 * x161 
  + 0.3076923077 x115^2 - 0.9230769231 x115 * x160 - 0.6153846154 x115 * x161 + 0.6923076923 x160^2 + 0.9230769231 x160 * x161 
  + 0.3076923077 x161^2 ] <= 13
 e1027: [ 0.9 x116^2 + 0.6 x116 * x117 - 1.8 x116 * x160 - 0.6 x116 * x161 + 0.1 x117^2 - 0.6 x117 * x160 
  - 0.2 x117 * x161 + 0.9 x160^2 + 0.6 x160 * x161 + 0.1 x161^2 ] <= 10
 e1028: [ 0.9 x120^2 - 0.6 x120 * x121 - 1.8 x120 * x160 + 0.6 x120 * x161 + 0.1 x121^2 + 0.6 x121 * x160 
  - 0.2 x121 * x161 + 0.9 x160^2 - 0.6 x160 * x161 + 0.1 x161^2 ] <= 10
 e1029: [ 0.3076923077 x126^2 + 0.9230769231 x126 * x127 - 0.6153846154 x126 * x160 - 0.9230769231 x126 * x161 
  + 0.6923076923 x127^2 - 0.9230769231 x127 * x160 - 1.384615385 x127 * x161 + 0.3076923077 x160^2 + 0.9230769231 x160 * x161 
  + 0.6923076923 x161^2 ] <= 13
 e1030: [ 0.8 x130^2 + 0.8 x130 * x131 - 1.6 x130 * x160 - 0.8 x130 * x161 + 0.2 x131^2 - 0.8 x131 * x160 
  - 0.4 x131 * x161 + 0.8 x160^2 + 0.8 x160 * x161 + 0.2 x161^2 ] <= 5
 e1031: [ 0.8 x134^2 - 0.8 x134 * x135 - 1.6 x134 * x160 + 0.8 x134 * x161 + 0.2 x135^2 + 0.8 x135 * x160 
  - 0.4 x135 * x161 + 0.8 x160^2 - 0.8 x160 * x161 + 0.2 x161^2 ] <= 5
 e1032: [ 0.1 x140^2 + 0.6 x140 * x141 - 0.2 x140 * x160 - 0.6 x140 * x161 + 0.9 x141^2 - 0.6 x141 * x160 
  - 1.8 x141 * x161 + 0.1 x160^2 + 0.6 x160 * x161 + 0.9 x161^2 ] <= 10
 e1033: [ 0.2 x142^2 + 0.8 x142 * x143 - 0.4 x142 * x160 - 0.8 x142 * x161 + 0.8 x143^2 - 0.8 x143 * x160 
  - 1.6 x143 * x161 + 0.2 x160^2 + 0.8 x160 * x161 + 0.8 x161^2 ] <= 5
 e1034: [ 0.5 x144^2 + x144 * x145 - x144 * x160 - x144 * x161 + 0.5 x145^2 - x145 * x160 - x145 * x161 
  + 0.5 x160^2 + x160 * x161 + 0.5 x161^2 ] <= 2
 e1035: [ x146^2 - 2 x146 * x160 + x160^2 ] <= 1
 e1036: [ 0.5 x148^2 - x148 * x149 - x148 * x160 + x148 * x161 + 0.5 x149^2 + x149 * x160 - x149 * x161 
  + 0.5 x160^2 - x160 * x161 + 0.5 x161^2 ] <= 2
 e1037: [ x151^2 - 2 x151 * x161 + x161^2 ] <= 25
 e1038: [ x153^2 - 2 x153 * x161 + x161^2 ] <= 16
 e1039: [ x155^2 - 2 x155 * x161 + x161^2 ] <= 9
 e1040: [ x157^2 - 2 x157 * x161 + x161^2 ] <= 4
 e1041: [ x159^2 - 2 x159 * x161 + x161^2 ] <= 1
 e1042: [ 0.6923076923 x116^2 + 0.9230769231 x116 * x117 - 1.384615385 x116 * x162 - 0.9230769231 x116 * x163 
  + 0.3076923077 x117^2 - 0.9230769231 x117 * x162 - 0.6153846154 x117 * x163 + 0.6923076923 x162^2 + 0.9230769231 x162 * x163 
  + 0.3076923077 x163^2 ] <= 13
 e1043: [ 0.9 x118^2 + 0.6 x118 * x119 - 1.8 x118 * x162 - 0.6 x118 * x163 + 0.1 x119^2 - 0.6 x119 * x162 
  - 0.2 x119 * x163 + 0.9 x162^2 + 0.6 x162 * x163 + 0.1 x163^2 ] <= 10
 e1044: [ 0.3076923077 x128^2 + 0.9230769231 x128 * x129 - 0.6153846154 x128 * x162 - 0.9230769231 x128 * x163 
  + 0.6923076923 x129^2 - 0.9230769231 x129 * x162 - 1.384615385 x129 * x163 + 0.3076923077 x162^2 + 0.9230769231 x162 * x163 
  + 0.6923076923 x163^2 ] <= 13
 e1045: [ 0.8 x132^2 + 0.8 x132 * x133 - 1.6 x132 * x162 - 0.8 x132 * x163 + 0.2 x133^2 - 0.8 x133 * x162 
  - 0.4 x133 * x163 + 0.8 x162^2 + 0.8 x162 * x163 + 0.2 x163^2 ] <= 5
 e1046: [ 0.1 x142^2 + 0.6 x142 * x143 - 0.2 x142 * x162 - 0.6 x142 * x163 + 0.9 x143^2 - 0.6 x143 * x162 
  - 1.8 x143 * x163 + 0.1 x162^2 + 0.6 x162 * x163 + 0.9 x163^2 ] <= 10
 e1047: [ 0.2 x144^2 + 0.8 x144 * x145 - 0.4 x144 * x162 - 0.8 x144 * x163 + 0.8 x145^2 - 0.8 x145 * x162 
  - 1.6 x145 * x163 + 0.2 x162^2 + 0.8 x162 * x163 + 0.8 x163^2 ] <= 5
 e1048: [ 0.5 x146^2 + x146 * x147 - x146 * x162 - x146 * x163 + 0.5 x147^2 - x147 * x162 - x147 * x163 
  + 0.5 x162^2 + x162 * x163 + 0.5 x163^2 ] <= 2
 e1049: [ x148^2 - 2 x148 * x162 + x162^2 ] <= 1
 e1050: [ x151^2 - 2 x151 * x163 + x163^2 ] <= 36
 e1051: [ x153^2 - 2 x153 * x163 + x163^2 ] <= 25
 e1052: [ x155^2 - 2 x155 * x163 + x163^2 ] <= 16
 e1053: [ x157^2 - 2 x157 * x163 + x163^2 ] <= 9
 e1054: [ x159^2 - 2 x159 * x163 + x163^2 ] <= 4
 e1055: [ x161^2 - 2 x161 * x163 + x163^2 ] <= 1
 e1056: [ 0.9 x124^2 - 0.6 x124 * x125 - 1.8 x124 * x164 + 0.6 x124 * x165 + 0.1 x125^2 + 0.6 x125 * x164 
  - 0.2 x125 * x165 + 0.9 x164^2 - 0.6 x164 * x165 + 0.1 x165^2 ] <= 10
 e1057: [ 0.6923076923 x126^2 - 0.9230769231 x126 * x127 - 1.384615385 x126 * x164 + 0.9230769231 x126 * x165 
  + 0.3076923077 x127^2 + 0.9230769231 x127 * x164 - 0.6153846154 x127 * x165 + 0.6923076923 x164^2 - 0.9230769231 x164 * x165 
  + 0.3076923077 x165^2 ] <= 13
 e1058: [ 0.8 x138^2 - 0.8 x138 * x139 - 1.6 x138 * x164 + 0.8 x138 * x165 + 0.2 x139^2 + 0.8 x139 * x164 
  - 0.4 x139 * x165 + 0.8 x164^2 - 0.8 x164 * x165 + 0.2 x165^2 ] <= 5
 e1059: [ 0.3076923077 x142^2 - 0.9230769231 x142 * x143 - 0.6153846154 x142 * x164 + 0.9230769231 x142 * x165 
  + 0.6923076923 x143^2 + 0.9230769231 x143 * x164 - 1.384615385 x143 * x165 + 0.3076923077 x164^2 - 0.9230769231 x164 * x165 
  + 0.6923076923 x165^2 ] <= 13
 e1060: [ x150^2 - 2 x150 * x164 + x164^2 ] <= 1
 e1061: [ 0.5 x152^2 - x152 * x153 - x152 * x164 + x152 * x165 + 0.5 x153^2 + x153 * x164 - x153 * x165 
  + 0.5 x164^2 - x164 * x165 + 0.5 x165^2 ] <= 2
 e1062: [ 0.2 x154^2 - 0.8 x154 * x155 - 0.4 x154 * x164 + 0.8 x154 * x165 + 0.8 x155^2 + 0.8 x155 * x164 
  - 1.6 x155 * x165 + 0.2 x164^2 - 0.8 x164 * x165 + 0.8 x165^2 ] <= 5
 e1063: [ 0.1 x156^2 - 0.6 x156 * x157 - 0.2 x156 * x164 + 0.6 x156 * x165 + 0.9 x157^2 + 0.6 x157 * x164 
  - 1.8 x157 * x165 + 0.1 x164^2 - 0.6 x164 * x165 + 0.9 x165^2 ] <= 10
 e1064: [ 0.9 x122^2 + 0.6 x122 * x123 - 1.8 x122 * x166 - 0.6 x122 * x167 + 0.1 x123^2 - 0.6 x123 * x166 
  - 0.2 x123 * x167 + 0.9 x166^2 + 0.6 x166 * x167 + 0.1 x167^2 ] <= 10
 e1065: [ 0.9 x126^2 - 0.6 x126 * x127 - 1.8 x126 * x166 + 0.6 x126 * x167 + 0.1 x127^2 + 0.6 x127 * x166 
  - 0.2 x127 * x167 + 0.9 x166^2 - 0.6 x166 * x167 + 0.1 x167^2 ] <= 10
 e1066: [ 0.6923076923 x128^2 - 0.9230769231 x128 * x129 - 1.384615385 x128 * x166 + 0.9230769231 x128 * x167 
  + 0.3076923077 x129^2 + 0.9230769231 x129 * x166 - 0.6153846154 x129 * x167 + 0.6923076923 x166^2 - 0.9230769231 x166 * x167 
  + 0.3076923077 x167^2 ] <= 13
 e1067: [ 0.8 x136^2 + 0.8 x136 * x137 - 1.6 x136 * x166 - 0.8 x136 * x167 + 0.2 x137^2 - 0.8 x137 * x166 
  - 0.4 x137 * x167 + 0.8 x166^2 + 0.8 x166 * x167 + 0.2 x167^2 ] <= 5
 e1068: [ 0.8 x140^2 - 0.8 x140 * x141 - 1.6 x140 * x166 + 0.8 x140 * x167 + 0.2 x141^2 + 0.8 x141 * x166 
  - 0.4 x141 * x167 + 0.8 x166^2 - 0.8 x166 * x167 + 0.2 x167^2 ] <= 5
 e1069: [ 0.3076923077 x144^2 - 0.9230769231 x144 * x145 - 0.6153846154 x144 * x166 + 0.9230769231 x144 * x167 
  + 0.6923076923 x145^2 + 0.9230769231 x145 * x166 - 1.384615385 x145 * x167 + 0.3076923077 x166^2 - 0.9230769231 x166 * x167 
  + 0.6923076923 x167^2 ] <= 13
 e1070: [ 0.5 x150^2 + x150 * x151 - x150 * x166 - x150 * x167 + 0.5 x151^2 - x151 * x166 - x151 * x167 
  + 0.5 x166^2 + x166 * x167 + 0.5 x167^2 ] <= 2
 e1071: [ x152^2 - 2 x152 * x166 + x166^2 ] <= 1
 e1072: [ 0.5 x154^2 - x154 * x155 - x154 * x166 + x154 * x167 + 0.5 x155^2 + x155 * x166 - x155 * x167 
  + 0.5 x166^2 - x166 * x167 + 0.5 x167^2 ] <= 2
 e1073: [ 0.2 x156^2 - 0.8 x156 * x157 - 0.4 x156 * x166 + 0.8 x156 * x167 + 0.8 x157^2 + 0.8 x157 * x166 
  - 1.6 x157 * x167 + 0.2 x166^2 - 0.8 x166 * x167 + 0.8 x167^2 ] <= 5
 e1074: [ 0.1 x158^2 - 0.6 x158 * x159 - 0.2 x158 * x166 + 0.6 x158 * x167 + 0.9 x159^2 + 0.6 x159 * x166 
  - 1.8 x159 * x167 + 0.1 x166^2 - 0.6 x166 * x167 + 0.9 x167^2 ] <= 10
 e1075: [ x165^2 - 2 x165 * x167 + x167^2 ] <= 1
 e1076: [ 0.6923076923 x122^2 + 0.9230769231 x122 * x123 - 1.384615385 x122 * x168 - 0.9230769231 x122 * x169 
  + 0.3076923077 x123^2 - 0.9230769231 x123 * x168 - 0.6153846154 x123 * x169 + 0.6923076923 x168^2 + 0.9230769231 x168 * x169 
  + 0.3076923077 x169^2 ] <= 13
 e1077: [ 0.9 x124^2 + 0.6 x124 * x125 - 1.8 x124 * x168 - 0.6 x124 * x169 + 0.1 x125^2 - 0.6 x125 * x168 
  - 0.2 x125 * x169 + 0.9 x168^2 + 0.6 x168 * x169 + 0.1 x169^2 ] <= 10
 e1078: [ 0.9 x128^2 - 0.6 x128 * x129 - 1.8 x128 * x168 + 0.6 x128 * x169 + 0.1 x129^2 + 0.6 x129 * x168 
  - 0.2 x129 * x169 + 0.9 x168^2 - 0.6 x168 * x169 + 0.1 x169^2 ] <= 10
 e1079: [ 0.6923076923 x130^2 - 0.9230769231 x130 * x131 - 1.384615385 x130 * x168 + 0.9230769231 x130 * x169 
  + 0.3076923077 x131^2 + 0.9230769231 x131 * x168 - 0.6153846154 x131 * x169 + 0.6923076923 x168^2 - 0.9230769231 x168 * x169 
  + 0.3076923077 x169^2 ] <= 13
 e1080: [ 0.8 x138^2 + 0.8 x138 * x139 - 1.6 x138 * x168 - 0.8 x138 * x169 + 0.2 x139^2 - 0.8 x139 * x168 
  - 0.4 x139 * x169 + 0.8 x168^2 + 0.8 x168 * x169 + 0.2 x169^2 ] <= 5
 e1081: [ 0.8 x142^2 - 0.8 x142 * x143 - 1.6 x142 * x168 + 0.8 x142 * x169 + 0.2 x143^2 + 0.8 x143 * x168 
  - 0.4 x143 * x169 + 0.8 x168^2 - 0.8 x168 * x169 + 0.2 x169^2 ] <= 5
 e1082: [ 0.3076923077 x146^2 - 0.9230769231 x146 * x147 - 0.6153846154 x146 * x168 + 0.9230769231 x146 * x169 
  + 0.6923076923 x147^2 + 0.9230769231 x147 * x168 - 1.384615385 x147 * x169 + 0.3076923077 x168^2 - 0.9230769231 x168 * x169 
  + 0.6923076923 x169^2 ] <= 13
 e1083: [ 0.2 x150^2 + 0.8 x150 * x151 - 0.4 x150 * x168 - 0.8 x150 * x169 + 0.8 x151^2 - 0.8 x151 * x168 
  - 1.6 x151 * x169 + 0.2 x168^2 + 0.8 x168 * x169 + 0.8 x169^2 ] <= 5
 e1084: [ 0.5 x152^2 + x152 * x153 - x152 * x168 - x152 * x169 + 0.5 x153^2 - x153 * x168 - x153 * x169 
  + 0.5 x168^2 + x168 * x169 + 0.5 x169^2 ] <= 2
 e1085: [ x154^2 - 2 x154 * x168 + x168^2 ] <= 1
 e1086: [ 0.5 x156^2 - x156 * x157 - x156 * x168 + x156 * x169 + 0.5 x157^2 + x157 * x168 - x157 * x169 
  + 0.5 x168^2 - x168 * x169 + 0.5 x169^2 ] <= 2
 e1087: [ 0.2 x158^2 - 0.8 x158 * x159 - 0.4 x158 * x168 + 0.8 x158 * x169 + 0.8 x159^2 + 0.8 x159 * x168 
  - 1.6 x159 * x169 + 0.2 x168^2 - 0.8 x168 * x169 + 0.8 x169^2 ] <= 5
 e1088: [ 0.1 x160^2 - 0.6 x160 * x161 - 0.2 x160 * x168 + 0.6 x160 * x169 + 0.9 x161^2 + 0.6 x161 * x168 
  - 1.8 x161 * x169 + 0.1 x168^2 - 0.6 x168 * x169 + 0.9 x169^2 ] <= 10
 e1089: [ x165^2 - 2 x165 * x169 + x169^2 ] <= 4
 e1090: [ x167^2 - 2 x167 * x169 + x169^2 ] <= 1
 e1091: [ 0.6923076923 x124^2 + 0.9230769231 x124 * x125 - 1.384615385 x124 * x170 - 0.9230769231 x124 * x171 
  + 0.3076923077 x125^2 - 0.9230769231 x125 * x170 - 0.6153846154 x125 * x171 + 0.6923076923 x170^2 + 0.9230769231 x170 * x171 
  + 0.3076923077 x171^2 ] <= 13
 e1092: [ 0.9 x126^2 + 0.6 x126 * x127 - 1.8 x126 * x170 - 0.6 x126 * x171 + 0.1 x127^2 - 0.6 x127 * x170 
  - 0.2 x127 * x171 + 0.9 x170^2 + 0.6 x170 * x171 + 0.1 x171^2 ] <= 10
 e1093: [ 0.9 x130^2 - 0.6 x130 * x131 - 1.8 x130 * x170 + 0.6 x130 * x171 + 0.1 x131^2 + 0.6 x131 * x170 
  - 0.2 x131 * x171 + 0.9 x170^2 - 0.6 x170 * x171 + 0.1 x171^2 ] <= 10
 e1094: [ 0.6923076923 x132^2 - 0.9230769231 x132 * x133 - 1.384615385 x132 * x170 + 0.9230769231 x132 * x171 
  + 0.3076923077 x133^2 + 0.9230769231 x133 * x170 - 0.6153846154 x133 * x171 + 0.6923076923 x170^2 - 0.9230769231 x170 * x171 
  + 0.3076923077 x171^2 ] <= 13
 e1095: [ 0.3076923077 x136^2 + 0.9230769231 x136 * x137 - 0.6153846154 x136 * x170 - 0.9230769231 x136 * x171 
  + 0.6923076923 x137^2 - 0.9230769231 x137 * x170 - 1.384615385 x137 * x171 + 0.3076923077 x170^2 + 0.9230769231 x170 * x171 
  + 0.6923076923 x171^2 ] <= 13
 e1096: [ 0.8 x140^2 + 0.8 x140 * x141 - 1.6 x140 * x170 - 0.8 x140 * x171 + 0.2 x141^2 - 0.8 x141 * x170 
  - 0.4 x141 * x171 + 0.8 x170^2 + 0.8 x170 * x171 + 0.2 x171^2 ] <= 5
 e1097: [ 0.8 x144^2 - 0.8 x144 * x145 - 1.6 x144 * x170 + 0.8 x144 * x171 + 0.2 x145^2 + 0.8 x145 * x170 
  - 0.4 x145 * x171 + 0.8 x170^2 - 0.8 x170 * x171 + 0.2 x171^2 ] <= 5
 e1098: [ 0.3076923077 x148^2 - 0.9230769231 x148 * x149 - 0.6153846154 x148 * x170 + 0.9230769231 x148 * x171 
  + 0.6923076923 x149^2 + 0.9230769231 x149 * x170 - 1.384615385 x149 * x171 + 0.3076923077 x170^2 - 0.9230769231 x170 * x171 
  + 0.6923076923 x171^2 ] <= 13
 e1099: [ 0.1 x150^2 + 0.6 x150 * x151 - 0.2 x150 * x170 - 0.6 x150 * x171 + 0.9 x151^2 - 0.6 x151 * x170 
  - 1.8 x151 * x171 + 0.1 x170^2 + 0.6 x170 * x171 + 0.9 x171^2 ] <= 10
 e1100: [ 0.2 x152^2 + 0.8 x152 * x153 - 0.4 x152 * x170 - 0.8 x152 * x171 + 0.8 x153^2 - 0.8 x153 * x170 
  - 1.6 x153 * x171 + 0.2 x170^2 + 0.8 x170 * x171 + 0.8 x171^2 ] <= 5
 e1101: [ 0.5 x154^2 + x154 * x155 - x154 * x170 - x154 * x171 + 0.5 x155^2 - x155 * x170 - x155 * x171 
  + 0.5 x170^2 + x170 * x171 + 0.5 x171^2 ] <= 2
 e1102: [ x156^2 - 2 x156 * x170 + x170^2 ] <= 1
 e1103: [ 0.5 x158^2 - x158 * x159 - x158 * x170 + x158 * x171 + 0.5 x159^2 + x159 * x170 - x159 * x171 
  + 0.5 x170^2 - x170 * x171 + 0.5 x171^2 ] <= 2
 e1104: [ 0.2 x160^2 - 0.8 x160 * x161 - 0.4 x160 * x170 + 0.8 x160 * x171 + 0.8 x161^2 + 0.8 x161 * x170 
  - 1.6 x161 * x171 + 0.2 x170^2 - 0.8 x170 * x171 + 0.8 x171^2 ] <= 5
 e1105: [ 0.1 x162^2 - 0.6 x162 * x163 - 0.2 x162 * x170 + 0.6 x162 * x171 + 0.9 x163^2 + 0.6 x163 * x170 
  - 1.8 x163 * x171 + 0.1 x170^2 - 0.6 x170 * x171 + 0.9 x171^2 ] <= 10
 e1106: [ x165^2 - 2 x165 * x171 + x171^2 ] <= 9
 e1107: [ x167^2 - 2 x167 * x171 + x171^2 ] <= 4
 e1108: [ x169^2 - 2 x169 * x171 + x171^2 ] <= 1
 e1109: [ 0.6923076923 x126^2 + 0.9230769231 x126 * x127 - 1.384615385 x126 * x172 - 0.9230769231 x126 * x173 
  + 0.3076923077 x127^2 - 0.9230769231 x127 * x172 - 0.6153846154 x127 * x173 + 0.6923076923 x172^2 + 0.9230769231 x172 * x173 
  + 0.3076923077 x173^2 ] <= 13
 e1110: [ 0.9 x128^2 + 0.6 x128 * x129 - 1.8 x128 * x172 - 0.6 x128 * x173 + 0.1 x129^2 - 0.6 x129 * x172 
  - 0.2 x129 * x173 + 0.9 x172^2 + 0.6 x172 * x173 + 0.1 x173^2 ] <= 10
 e1111: [ 0.9 x132^2 - 0.6 x132 * x133 - 1.8 x132 * x172 + 0.6 x132 * x173 + 0.1 x133^2 + 0.6 x133 * x172 
  - 0.2 x133 * x173 + 0.9 x172^2 - 0.6 x172 * x173 + 0.1 x173^2 ] <= 10
 e1112: [ 0.6923076923 x134^2 - 0.9230769231 x134 * x135 - 1.384615385 x134 * x172 + 0.9230769231 x134 * x173 
  + 0.3076923077 x135^2 + 0.9230769231 x135 * x172 - 0.6153846154 x135 * x173 + 0.6923076923 x172^2 - 0.9230769231 x172 * x173 
  + 0.3076923077 x173^2 ] <= 13
 e1113: [ 0.3076923077 x138^2 + 0.9230769231 x138 * x139 - 0.6153846154 x138 * x172 - 0.9230769231 x138 * x173 
  + 0.6923076923 x139^2 - 0.9230769231 x139 * x172 - 1.384615385 x139 * x173 + 0.3076923077 x172^2 + 0.9230769231 x172 * x173 
  + 0.6923076923 x173^2 ] <= 13
 e1114: [ 0.8 x142^2 + 0.8 x142 * x143 - 1.6 x142 * x172 - 0.8 x142 * x173 + 0.2 x143^2 - 0.8 x143 * x172 
  - 0.4 x143 * x173 + 0.8 x172^2 + 0.8 x172 * x173 + 0.2 x173^2 ] <= 5
 e1115: [ 0.8 x146^2 - 0.8 x146 * x147 - 1.6 x146 * x172 + 0.8 x146 * x173 + 0.2 x147^2 + 0.8 x147 * x172 
  - 0.4 x147 * x173 + 0.8 x172^2 - 0.8 x172 * x173 + 0.2 x173^2 ] <= 5
 e1116: [ 0.1 x152^2 + 0.6 x152 * x153 - 0.2 x152 * x172 - 0.6 x152 * x173 + 0.9 x153^2 - 0.6 x153 * x172 
  - 1.8 x153 * x173 + 0.1 x172^2 + 0.6 x172 * x173 + 0.9 x173^2 ] <= 10
 e1117: [ 0.2 x154^2 + 0.8 x154 * x155 - 0.4 x154 * x172 - 0.8 x154 * x173 + 0.8 x155^2 - 0.8 x155 * x172 
  - 1.6 x155 * x173 + 0.2 x172^2 + 0.8 x172 * x173 + 0.8 x173^2 ] <= 5
 e1118: [ 0.5 x156^2 + x156 * x157 - x156 * x172 - x156 * x173 + 0.5 x157^2 - x157 * x172 - x157 * x173 
  + 0.5 x172^2 + x172 * x173 + 0.5 x173^2 ] <= 2
 e1119: [ x158^2 - 2 x158 * x172 + x172^2 ] <= 1
 e1120: [ 0.5 x160^2 - x160 * x161 - x160 * x172 + x160 * x173 + 0.5 x161^2 + x161 * x172 - x161 * x173 
  + 0.5 x172^2 - x172 * x173 + 0.5 x173^2 ] <= 2
 e1121: [ 0.2 x162^2 - 0.8 x162 * x163 - 0.4 x162 * x172 + 0.8 x162 * x173 + 0.8 x163^2 + 0.8 x163 * x172 
  - 1.6 x163 * x173 + 0.2 x172^2 - 0.8 x172 * x173 + 0.8 x173^2 ] <= 5
 e1122: [ x165^2 - 2 x165 * x173 + x173^2 ] <= 16
 e1123: [ x167^2 - 2 x167 * x173 + x173^2 ] <= 9
 e1124: [ x169^2 - 2 x169 * x173 + x173^2 ] <= 4
 e1125: [ x171^2 - 2 x171 * x173 + x173^2 ] <= 1
 e1126: [ 0.6923076923 x128^2 + 0.9230769231 x128 * x129 - 1.384615385 x128 * x174 - 0.9230769231 x128 * x175 
  + 0.3076923077 x129^2 - 0.9230769231 x129 * x174 - 0.6153846154 x129 * x175 + 0.6923076923 x174^2 + 0.9230769231 x174 * x175 
  + 0.3076923077 x175^2 ] <= 13
 e1127: [ 0.9 x130^2 + 0.6 x130 * x131 - 1.8 x130 * x174 - 0.6 x130 * x175 + 0.1 x131^2 - 0.6 x131 * x174 
  - 0.2 x131 * x175 + 0.9 x174^2 + 0.6 x174 * x175 + 0.1 x175^2 ] <= 10
 e1128: [ 0.9 x134^2 - 0.6 x134 * x135 - 1.8 x134 * x174 + 0.6 x134 * x175 + 0.1 x135^2 + 0.6 x135 * x174 
  - 0.2 x135 * x175 + 0.9 x174^2 - 0.6 x174 * x175 + 0.1 x175^2 ] <= 10
 e1129: [ 0.3076923077 x140^2 + 0.9230769231 x140 * x141 - 0.6153846154 x140 * x174 - 0.9230769231 x140 * x175 
  + 0.6923076923 x141^2 - 0.9230769231 x141 * x174 - 1.384615385 x141 * x175 + 0.3076923077 x174^2 + 0.9230769231 x174 * x175 
  + 0.6923076923 x175^2 ] <= 13
 e1130: [ 0.8 x144^2 + 0.8 x144 * x145 - 1.6 x144 * x174 - 0.8 x144 * x175 + 0.2 x145^2 - 0.8 x145 * x174 
  - 0.4 x145 * x175 + 0.8 x174^2 + 0.8 x174 * x175 + 0.2 x175^2 ] <= 5
 e1131: [ 0.8 x148^2 - 0.8 x148 * x149 - 1.6 x148 * x174 + 0.8 x148 * x175 + 0.2 x149^2 + 0.8 x149 * x174 
  - 0.4 x149 * x175 + 0.8 x174^2 - 0.8 x174 * x175 + 0.2 x175^2 ] <= 5
 e1132: [ 0.1 x154^2 + 0.6 x154 * x155 - 0.2 x154 * x174 - 0.6 x154 * x175 + 0.9 x155^2 - 0.6 x155 * x174 
  - 1.8 x155 * x175 + 0.1 x174^2 + 0.6 x174 * x175 + 0.9 x175^2 ] <= 10
 e1133: [ 0.2 x156^2 + 0.8 x156 * x157 - 0.4 x156 * x174 - 0.8 x156 * x175 + 0.8 x157^2 - 0.8 x157 * x174 
  - 1.6 x157 * x175 + 0.2 x174^2 + 0.8 x174 * x175 + 0.8 x175^2 ] <= 5
 e1134: [ 0.5 x158^2 + x158 * x159 - x158 * x174 - x158 * x175 + 0.5 x159^2 - x159 * x174 - x159 * x175 
  + 0.5 x174^2 + x174 * x175 + 0.5 x175^2 ] <= 2
 e1135: [ x160^2 - 2 x160 * x174 + x174^2 ] <= 1
 e1136: [ 0.5 x162^2 - x162 * x163 - x162 * x174 + x162 * x175 + 0.5 x163^2 + x163 * x174 - x163 * x175 
  + 0.5 x174^2 - x174 * x175 + 0.5 x175^2 ] <= 2
 e1137: [ x165^2 - 2 x165 * x175 + x175^2 ] <= 25
 e1138: [ x167^2 - 2 x167 * x175 + x175^2 ] <= 16
 e1139: [ x169^2 - 2 x169 * x175 + x175^2 ] <= 9
 e1140: [ x171^2 - 2 x171 * x175 + x175^2 ] <= 4
 e1141: [ x173^2 - 2 x173 * x175 + x175^2 ] <= 1
 e1142: [ 0.6923076923 x130^2 + 0.9230769231 x130 * x131 - 1.384615385 x130 * x176 - 0.9230769231 x130 * x177 
  + 0.3076923077 x131^2 - 0.9230769231 x131 * x176 - 0.6153846154 x131 * x177 + 0.6923076923 x176^2 + 0.9230769231 x176 * x177 
  + 0.3076923077 x177^2 ] <= 13
 e1143: [ 0.9 x132^2 + 0.6 x132 * x133 - 1.8 x132 * x176 - 0.6 x132 * x177 + 0.1 x133^2 - 0.6 x133 * x176 
  - 0.2 x133 * x177 + 0.9 x176^2 + 0.6 x176 * x177 + 0.1 x177^2 ] <= 10
 e1144: [ 0.3076923077 x142^2 + 0.9230769231 x142 * x143 - 0.6153846154 x142 * x176 - 0.9230769231 x142 * x177 
  + 0.6923076923 x143^2 - 0.9230769231 x143 * x176 - 1.384615385 x143 * x177 + 0.3076923077 x176^2 + 0.9230769231 x176 * x177 
  + 0.6923076923 x177^2 ] <= 13
 e1145: [ 0.8 x146^2 + 0.8 x146 * x147 - 1.6 x146 * x176 - 0.8 x146 * x177 + 0.2 x147^2 - 0.8 x147 * x176 
  - 0.4 x147 * x177 + 0.8 x176^2 + 0.8 x176 * x177 + 0.2 x177^2 ] <= 5
 e1146: [ 0.1 x156^2 + 0.6 x156 * x157 - 0.2 x156 * x176 - 0.6 x156 * x177 + 0.9 x157^2 - 0.6 x157 * x176 
  - 1.8 x157 * x177 + 0.1 x176^2 + 0.6 x176 * x177 + 0.9 x177^2 ] <= 10
 e1147: [ 0.2 x158^2 + 0.8 x158 * x159 - 0.4 x158 * x176 - 0.8 x158 * x177 + 0.8 x159^2 - 0.8 x159 * x176 
  - 1.6 x159 * x177 + 0.2 x176^2 + 0.8 x176 * x177 + 0.8 x177^2 ] <= 5
 e1148: [ 0.5 x160^2 + x160 * x161 - x160 * x176 - x160 * x177 + 0.5 x161^2 - x161 * x176 - x161 * x177 
  + 0.5 x176^2 + x176 * x177 + 0.5 x177^2 ] <= 2
 e1149: [ x162^2 - 2 x162 * x176 + x176^2 ] <= 1
 e1150: [ x165^2 - 2 x165 * x177 + x177^2 ] <= 36
 e1151: [ x167^2 - 2 x167 * x177 + x177^2 ] <= 25
 e1152: [ x169^2 - 2 x169 * x177 + x177^2 ] <= 16
 e1153: [ x171^2 - 2 x171 * x177 + x177^2 ] <= 9
 e1154: [ x173^2 - 2 x173 * x177 + x177^2 ] <= 4
 e1155: [ x175^2 - 2 x175 * x177 + x177^2 ] <= 1

Bounds
 x2 Free
 x3 Free
 x4 Free
 x5 Free
 x6 Free
 x7 Free
 x8 Free
 x9 Free
 x10 Free
 x11 Free
 x12 Free
 x13 Free
 x14 Free
 x15 Free
 x16 Free
 x17 Free
 x18 Free
 x19 Free
 x20 Free
 x21 Free
 x22 Free
 x23 Free
 x24 Free
 x25 Free
 x26 Free
 x27 Free
 x28 Free
 x29 Free
 x30 Free
 x31 Free
 x32 Free
 x33 Free
 x34 Free
 x35 Free
 x36 Free
 x37 Free
 x38 Free
 x39 Free
 x40 Free
 x41 Free
 x42 Free
 x43 Free
 x44 Free
 x45 Free
 x46 Free
 x47 Free
 x48 Free
 x49 Free
 x50 Free
 x51 Free
 x52 Free
 x53 Free
 x54 Free
 x55 Free
 x56 Free
 x57 Free
 x58 Free
 x59 Free
 x60 Free
 x61 Free
 x62 Free
 x63 Free
 x64 Free
 x65 Free
 x66 Free
 x67 Free
 x68 Free
 x69 Free
 x70 Free
 x71 Free
 x72 Free
 x73 Free
 x74 Free
 x75 Free
 x76 Free
 x77 Free
 x78 Free
 x79 Free
 x80 Free
 x81 Free
 x82 Free
 x83 Free
 x84 Free
 x85 Free
 x86 Free
 x87 Free
 x88 Free
 x89 Free
 x90 Free
 x91 Free
 x92 Free
 x93 Free
 x94 Free
 x95 Free
 x96 Free
 x97 Free
 x98 Free
 x99 Free
 x100 Free
 x101 Free
 x102 Free
 x103 Free
 x104 Free
 x105 Free
 x106 Free
 x107 Free
 x108 Free
 x109 Free
 x110 Free
 x111 Free
 x112 Free
 x113 Free
 x114 Free
 x115 Free
 x116 Free
 x117 Free
 x118 Free
 x119 Free
 x120 Free
 x121 Free
 x122 Free
 x123 Free
 x124 Free
 x125 Free
 x126 Free
 x127 Free
 x128 Free
 x129 Free
 x130 Free
 x131 Free
 x132 Free
 x133 Free
 x134 Free
 x135 Free
 x136 Free
 x137 Free
 x138 Free
 x139 Free
 x140 Free
 x141 Free
 x142 Free
 x143 Free
 x144 Free
 x145 Free
 x146 Free
 x147 Free
 x148 Free
 x149 Free
 x150 Free
 x151 Free
 x152 Free
 x153 Free
 x154 Free
 x155 Free
 x156 Free
 x157 Free
 x158 Free
 x159 Free
 x160 Free
 x161 Free
 x162 Free
 x163 Free
 x164 Free
 x165 Free
 x166 Free
 x167 Free
 x168 Free
 x169 Free
 x170 Free
 x171 Free
 x172 Free
 x173 Free
 x174 Free
 x175 Free
 x176 Free
 x177 Free

End
