\ Equation counts
\     Total        E        G        L        N        X        C        B
\       300      200        0      100        0        0        0        0
\ 
\ Variable counts
\                  x        b        i      s1s      s2s       sc       si
\     Total     cont   binary  integer     sos1     sos2    scont     sint
\       305      205      100        0        0        0        0        0
\ 
\ Nonzero counts
\     Total    const       NL      DLL
\      1093      893      200        0
\ 
Minimize
 obj: b2 + b3 + b4 + b5 + b6 + b7 + b8 + b9 + b10 + b11 + b12 + b13 + b14 + b15 + b16 + b17 + b18 + b19 
  + b20 + b21 + b22 + b23 + b24 + b25 + b26 + b27 + b28 + b29 + b30 + b31 + b32 + b33 + b34 + b35 + b36 
  + b37 + b38 + b39 + b40 + b41 + b42 + b43 + b44 + b45 + b46 + b47 + b48 + b49 + b50 + b51 + b52 + b53 
  + b54 + b55 + b56 + b57 + b58 + b59 + b60 + b61 + b62 + b63 + b64 + b65 + b66 + b67 + b68 + b69 + b70 
  + b71 + b72 + b73 + b74 + b75 + b76 + b77 + b78 + b79 + b80 + b81 + b82 + b83 + b84 + b85 + b86 + b87 
  + b88 + b89 + b90 + b91 + b92 + b93 + b94 + b95 + b96 + b97 + b98 + b99 + b100 + b101 + 0 x102 + 0 x103 
  + 0 x104 + 0 x105 + 0 x106 + 0 x107 + 0 x108 + 0 x109 + 0 x110 + 0 x111 + 0 x112 + 0 x113 + 0 x114 
  + 0 x115 + 0 x116 + 0 x117 + 0 x118 + 0 x119 + 0 x120 + 0 x121 + 0 x122 + 0 x123 + 0 x124 + 0 x125 
  + 0 x126 + 0 x127 + 0 x128 + 0 x129 + 0 x130 + 0 x131 + 0 x132 + 0 x133 + 0 x134 + 0 x135 + 0 x136 
  + 0 x137 + 0 x138 + 0 x139 + 0 x140 + 0 x141 + 0 x142 + 0 x143 + 0 x144 + 0 x145 + 0 x146 + 0 x147 
  + 0 x148 + 0 x149 + 0 x150 + 0 x151 + 0 x152 + 0 x153 + 0 x154 + 0 x155 + 0 x156 + 0 x157 + 0 x158 
  + 0 x159 + 0 x160 + 0 x161 + 0 x162 + 0 x163 + 0 x164 + 0 x165 + 0 x166 + 0 x167 + 0 x168 + 0 x169 
  + 0 x170 + 0 x171 + 0 x172 + 0 x173 + 0 x174 + 0 x175 + 0 x176 + 0 x177 + 0 x178 + 0 x179 + 0 x180 
  + 0 x181 + 0 x182 + 0 x183 + 0 x184 + 0 x185 + 0 x186 + 0 x187 + 0 x188 + 0 x189 + 0 x190 + 0 x191 
  + 0 x192 + 0 x193 + 0 x194 + 0 x195 + 0 x196 + 0 x197 + 0 x198 + 0 x199 + 0 x200 + 0 x201 + 0 x202 
  + 0 x203 + 0 x204 + 0 x205 + 0 x206 + 0 x207 + 0 x208 + 0 x209 + 0 x210 + 0 x211 + 0 x212 + 0 x213 
  + 0 x214 + 0 x215 + 0 x216 + 0 x217 + 0 x218 + 0 x219 + 0 x220 + 0 x221 + 0 x222 + 0 x223 + 0 x224 
  + 0 x225 + 0 x226 + 0 x227 + 0 x228 + 0 x229 + 0 x230 + 0 x231 + 0 x232 + 0 x233 + 0 x234 + 0 x235 
  + 0 x236 + 0 x237 + 0 x238 + 0 x239 + 0 x240 + 0 x241 + 0 x242 + 0 x243 + 0 x244 + 0 x245 + 0 x246 
  + 0 x247 + 0 x248 + 0 x249 + 0 x250 + 0 x251 + 0 x252 + 0 x253 + 0 x254 + 0 x255 + 0 x256 + 0 x257 
  + 0 x258 + 0 x259 + 0 x260 + 0 x261 + 0 x262 + 0 x263 + 0 x264 + 0 x265 + 0 x266 + 0 x267 + 0 x268 
  + 0 x269 + 0 x270 + 0 x271 + 0 x272 + 0 x273 + 0 x274 + 0 x275 + 0 x276 + 0 x277 + 0 x278 + 0 x279 
  + 0 x280 + 0 x281 + 0 x282 + 0 x283 + 0 x284 + 0 x285 + 0 x286 + 0 x287 + 0 x288 + 0 x289 + 0 x290 
  + 0 x291 + 0 x292 + 0 x293 + 0 x294 + 0 x295 + 0 x296 + 0 x297 + 0 x298 + 0 x299 + 0 x300 + 0 x301 
  + 0 x302 + 0 x303 + 0 x304 + 0 x305 + 0 x306

Subject To
 e2: - 66 x102 + 49 x103 - 81 x104 + 73 x105 + 15 x106 - x107 <= 56
 e3: 38 x102 - 26 x103 + 74 x104 + 48 x105 - 11 x106 - x108 <= -29
 e4: 46 x102 - 48 x103 - 21 x104 + 55 x105 + 68 x106 - x109 <= 14
 e5: 42 x102 - 84 x103 - 9 x104 - 78 x105 + 8 x106 - x110 <= -22
 e6: 13 x102 + 91 x103 + 73 x104 - 68 x105 - 45 x106 - x111 <= -48
 e7: 84 x102 - 13 x103 + 57 x104 - 75 x105 - 84 x106 - x112 <= 88
 e8: - 95 x102 - 70 x103 - 24 x104 - 69 x105 + 5 x106 - x113 <= 75
 e9: - 14 x102 - 47 x103 - 37 x104 + 53 x105 - 79 x106 - x114 <= 53
 e10: 40 x102 - 57 x103 + 52 x104 - 18 x105 + 29 x106 - x115 <= 85
 e11: 37 x103 - 13 x104 + 21 x105 + 14 x106 - x116 <= 26
 e12: - 7 x102 + 26 x103 - 73 x104 + 92 x105 - 71 x106 - x117 <= -11
 e13: - 35 x102 + 90 x103 - 29 x104 - 20 x105 - 80 x106 - x118 <= 90
 e14: 96 x102 + 14 x103 + 73 x104 - 70 x105 + 81 x106 - x119 <= 29
 e15: - 88 x102 + 90 x103 + 93 x104 + 56 x105 + 60 x106 - x120 <= 13
 e16: - 44 x102 + 92 x103 + 15 x104 - 13 x105 - 25 x106 - x121 <= 84
 e17: - 95 x102 + 53 x103 + 44 x104 + 17 x105 - 15 x106 - x122 <= 28
 e18: 49 x102 - 87 x103 - 90 x104 + 54 x105 + 40 x106 - x123 <= -76
 e19: - 40 x102 - 86 x103 + 37 x104 - 27 x105 + 45 x106 - x124 <= -61
 e20: - 69 x102 - 68 x103 + 66 x104 + 9 x105 - 37 x106 - x125 <= 5
 e21: - 13 x102 - 58 x103 + 45 x104 - 100 x105 + 16 x106 - x126 <= -5
 e22: 87 x102 + 52 x103 - 75 x104 - 98 x105 - x127 <= 68
 e23: 70 x102 - 82 x103 + 71 x104 + 57 x105 + 15 x106 - x128 <= -81
 e24: 65 x102 + 49 x103 + 81 x104 + x105 + 76 x106 - x129 <= 92
 e25: 12 x102 - 5 x103 - 17 x104 + 29 x105 + 75 x106 - x130 <= 16
 e26: - 56 x102 + 99 x103 - 69 x104 + 38 x105 + 40 x106 - x131 <= 97
 e27: 29 x102 + 30 x103 + 68 x104 + 36 x105 + 93 x106 - x132 <= -34
 e28: 59 x102 - 68 x103 + 72 x104 + 20 x105 - 16 x106 - x133 <= 96
 e29: 73 x102 - 7 x103 - 51 x104 + 68 x105 + 68 x106 - x134 <= 47
 e30: - 74 x102 - 5 x103 + 56 x104 + 13 x106 - x135 <= -11
 e31: - 93 x102 - 34 x103 - 15 x104 + 16 x105 - 83 x106 - x136 <= 34
 e32: 17 x102 - 53 x103 + 48 x104 + 91 x105 + 72 x106 - x137 <= -86
 e33: 7 x102 - 24 x103 - 100 x104 + 43 x105 - 90 x106 - x138 <= -96
 e34: 51 x102 + 25 x103 + 86 x104 + 9 x105 - 17 x106 - x139 <= -22
 e35: - 61 x102 - 39 x103 - 58 x104 + 21 x105 - 26 x106 - x140 <= -68
 e36: - 8 x102 + 60 x103 - 64 x104 + 43 x105 - 5 x106 - x141 <= -72
 e37: 26 x102 - 52 x103 - 76 x104 + 74 x105 - 80 x106 - x142 <= 50
 e38: - 24 x102 + 10 x103 - 85 x104 - 25 x105 + 24 x106 - x143 <= 57
 e39: - 16 x102 + 64 x103 + 9 x104 + 45 x105 - 2 x106 - x144 <= -48
 e40: - 2 x103 - 2 x104 + 69 x105 + 83 x106 - x145 <= -28
 e41: 8 x102 + 20 x103 + 21 x104 - 12 x105 + 41 x106 - x146 <= -57
 e42: 52 x102 - 39 x103 + 57 x104 - 82 x105 + 79 x106 - x147 <= 86
 e43: 93 x102 + 23 x103 - 87 x104 - 78 x105 + 25 x106 - x148 <= -86
 e44: 11 x102 - 53 x103 + 22 x104 + 86 x105 + 13 x106 - x149 <= 14
 e45: - 7 x102 - 76 x103 - 53 x104 + 99 x105 + 11 x106 - x150 <= 72
 e46: - 43 x102 + 45 x103 + 64 x104 - 2 x105 + 18 x106 - x151 <= -78
 e47: - 69 x102 + 39 x103 + 18 x104 + 76 x105 - 14 x106 - x152 <= -58
 e48: - 64 x102 + 37 x103 - 57 x104 - 47 x105 - 56 x106 - x153 <= -1
 e49: - 47 x102 - 11 x103 - 53 x104 - 41 x105 + 29 x106 - x154 <= 49
 e50: 38 x102 - 15 x103 + 51 x104 - 20 x105 - 25 x106 - x155 <= 27
 e51: 6 x102 + 79 x103 + 30 x104 + 86 x105 - 99 x106 - x156 <= -66
 e52: 28 x102 + 52 x103 + 34 x104 + 53 x105 + 50 x106 - x157 <= 79
 e53: - 57 x102 + 26 x103 + 19 x104 + 24 x105 - 27 x106 - x158 <= -86
 e54: - 50 x102 - 28 x103 - 3 x104 - 42 x106 - x159 <= -53
 e55: 32 x102 + 79 x103 + 33 x104 - 92 x105 + 67 x106 - x160 <= 13
 e56: - 64 x102 - 95 x103 - 5 x104 + 12 x105 - 67 x106 - x161 <= 21
 e57: 28 x102 - 39 x103 + 91 x104 + 52 x105 + 26 x106 - x162 <= -87
 e58: - 74 x102 + 51 x103 - 4 x104 + 42 x105 - 77 x106 - x163 <= 27
 e59: - 20 x102 + 40 x103 + 56 x104 + 40 x105 - 47 x106 - x164 <= 55
 e60: - 74 x102 - 45 x103 - 84 x104 - 58 x105 - 61 x106 - x165 <= 23
 e61: 20 x102 + 9 x103 + 13 x104 - 75 x105 - 86 x106 - x166 <= 76
 e62: - 70 x102 + 12 x103 - 37 x104 - 33 x105 - 59 x106 - x167 <= 34
 e63: - 93 x102 - 92 x103 + 63 x104 - 88 x105 + 41 x106 - x168 <= -18
 e64: 77 x102 + 87 x103 - 100 x104 - 30 x105 + 87 x106 - x169 <= 98
 e65: - 28 x102 + 95 x103 - 95 x104 - 32 x105 + 69 x106 - x170 <= -12
 e66: 40 x102 + 13 x103 - 80 x104 - 64 x105 - 52 x106 - x171 <= 36
 e67: 97 x102 + 2 x103 + 80 x104 - 7 x105 - 5 x106 - x172 <= -19
 e68: 51 x102 - 77 x103 - 71 x104 + 39 x105 - 48 x106 - x173 <= 5
 e69: - 87 x102 - 71 x103 - 18 x104 - 84 x105 + 27 x106 - x174 <= -97
 e70: - 52 x102 + 15 x103 - 68 x104 - 47 x105 - 85 x106 - x175 <= -71
 e71: - 83 x102 - 72 x103 - 6 x104 + 44 x105 - 5 x106 - x176 <= 11
 e72: - x102 - 84 x103 - 41 x104 - 41 x105 - 34 x106 - x177 <= -83
 e73: - 81 x102 - 60 x103 - 79 x104 - 66 x105 + 66 x106 - x178 <= 65
 e74: 84 x102 + 6 x103 - 6 x104 + 39 x105 + x106 - x179 <= 53
 e75: 96 x102 - 7 x103 + 33 x104 + 78 x105 + 70 x106 - x180 <= 50
 e76: 42 x102 - 83 x103 + 59 x104 - 25 x105 - 9 x106 - x181 <= -27
 e77: 55 x102 + 19 x103 - 89 x104 - 76 x105 + 11 x106 - x182 <= 30
 e78: - 88 x102 + 4 x103 + 68 x104 - 69 x105 - 100 x106 - x183 <= 79
 e79: - 57 x102 - 63 x103 + 93 x104 + 63 x105 + 41 x106 - x184 <= 17
 e80: 35 x102 + 54 x103 - 54 x104 - 57 x105 - 26 x106 - x185 <= 64
 e81: - 68 x102 + 22 x103 - 76 x104 - 13 x105 - 100 x106 - x186 <= 3
 e82: - 8 x102 + 37 x103 - 94 x104 - 19 x105 - x187 <= -44
 e83: 99 x102 - 27 x103 - 26 x104 + 90 x105 - 84 x106 - x188 <= 22
 e84: 58 x102 - 29 x103 + 94 x104 - 64 x105 - 14 x106 - x189 <= 56
 e85: - 77 x102 + 6 x103 - 52 x104 + 22 x105 + 55 x106 - x190 <= -64
 e86: - 2 x102 + 86 x103 - 37 x104 - 28 x105 - 80 x106 - x191 <= -26
 e87: 77 x102 + 78 x103 + 97 x104 - 79 x105 - 70 x106 - x192 <= 87
 e88: 56 x102 + 75 x103 - 48 x104 - 75 x105 + 7 x106 - x193 <= -31
 e89: - 23 x102 - 26 x103 - 5 x104 + 45 x105 + 86 x106 - x194 <= -1
 e90: - 5 x102 + 91 x103 - 40 x104 - 10 x105 + 64 x106 - x195 <= -24
 e91: 45 x102 - 31 x103 + 31 x104 + 72 x105 + 32 x106 - x196 <= 60
 e92: 85 x102 - 36 x103 - 5 x104 + 13 x105 - 15 x106 - x197 <= 89
 e93: - 83 x102 - 15 x103 - 38 x104 + 39 x105 - 29 x106 - x198 <= 6
 e94: - 78 x102 + 47 x103 + 85 x104 - 72 x105 + 88 x106 - x199 <= -96
 e95: - 20 x102 - 60 x103 - 80 x104 - 93 x105 - 19 x106 - x200 <= -11
 e96: 36 x102 - 49 x103 + 62 x104 - 81 x105 + 29 x106 - x201 <= 1
 e97: - 69 x103 + 26 x104 - 79 x105 - 58 x106 - x202 <= 77
 e98: 97 x102 - 97 x103 + 72 x104 - 76 x105 - 74 x106 - x203 <= 13
 e99: - 74 x102 + 72 x103 + 8 x104 - 11 x105 - 37 x106 - x204 <= -14
 e100: 93 x102 + 61 x103 + 44 x104 + 68 x105 + 86 x106 - x205 <= -77
 e101: - 7 x102 - 22 x103 - 24 x104 - 50 x105 - 74 x106 - x206 <= 24
 e102: - b2 - x207 = -1
 e103: - b3 - x208 = -1
 e104: - b4 - x209 = -1
 e105: - b5 - x210 = -1
 e106: - b6 - x211 = -1
 e107: - b7 - x212 = -1
 e108: - b8 - x213 = -1
 e109: - b9 - x214 = -1
 e110: - b10 - x215 = -1
 e111: - b11 - x216 = -1
 e112: - b12 - x217 = -1
 e113: - b13 - x218 = -1
 e114: - b14 - x219 = -1
 e115: - b15 - x220 = -1
 e116: - b16 - x221 = -1
 e117: - b17 - x222 = -1
 e118: - b18 - x223 = -1
 e119: - b19 - x224 = -1
 e120: - b20 - x225 = -1
 e121: - b21 - x226 = -1
 e122: - b22 - x227 = -1
 e123: - b23 - x228 = -1
 e124: - b24 - x229 = -1
 e125: - b25 - x230 = -1
 e126: - b26 - x231 = -1
 e127: - b27 - x232 = -1
 e128: - b28 - x233 = -1
 e129: - b29 - x234 = -1
 e130: - b30 - x235 = -1
 e131: - b31 - x236 = -1
 e132: - b32 - x237 = -1
 e133: - b33 - x238 = -1
 e134: - b34 - x239 = -1
 e135: - b35 - x240 = -1
 e136: - b36 - x241 = -1
 e137: - b37 - x242 = -1
 e138: - b38 - x243 = -1
 e139: - b39 - x244 = -1
 e140: - b40 - x245 = -1
 e141: - b41 - x246 = -1
 e142: - b42 - x247 = -1
 e143: - b43 - x248 = -1
 e144: - b44 - x249 = -1
 e145: - b45 - x250 = -1
 e146: - b46 - x251 = -1
 e147: - b47 - x252 = -1
 e148: - b48 - x253 = -1
 e149: - b49 - x254 = -1
 e150: - b50 - x255 = -1
 e151: - b51 - x256 = -1
 e152: - b52 - x257 = -1
 e153: - b53 - x258 = -1
 e154: - b54 - x259 = -1
 e155: - b55 - x260 = -1
 e156: - b56 - x261 = -1
 e157: - b57 - x262 = -1
 e158: - b58 - x263 = -1
 e159: - b59 - x264 = -1
 e160: - b60 - x265 = -1
 e161: - b61 - x266 = -1
 e162: - b62 - x267 = -1
 e163: - b63 - x268 = -1
 e164: - b64 - x269 = -1
 e165: - b65 - x270 = -1
 e166: - b66 - x271 = -1
 e167: - b67 - x272 = -1
 e168: - b68 - x273 = -1
 e169: - b69 - x274 = -1
 e170: - b70 - x275 = -1
 e171: - b71 - x276 = -1
 e172: - b72 - x277 = -1
 e173: - b73 - x278 = -1
 e174: - b74 - x279 = -1
 e175: - b75 - x280 = -1
 e176: - b76 - x281 = -1
 e177: - b77 - x282 = -1
 e178: - b78 - x283 = -1
 e179: - b79 - x284 = -1
 e180: - b80 - x285 = -1
 e181: - b81 - x286 = -1
 e182: - b82 - x287 = -1
 e183: - b83 - x288 = -1
 e184: - b84 - x289 = -1
 e185: - b85 - x290 = -1
 e186: - b86 - x291 = -1
 e187: - b87 - x292 = -1
 e188: - b88 - x293 = -1
 e189: - b89 - x294 = -1
 e190: - b90 - x295 = -1
 e191: - b91 - x296 = -1
 e192: - b92 - x297 = -1
 e193: - b93 - x298 = -1
 e194: - b94 - x299 = -1
 e195: - b95 - x300 = -1
 e196: - b96 - x301 = -1
 e197: - b97 - x302 = -1
 e198: - b98 - x303 = -1
 e199: - b99 - x304 = -1
 e200: - b100 - x305 = -1
 e201: - b101 - x306 = -1
 e202: [ x107 * x207 ] = 0
 e203: [ x108 * x208 ] = 0
 e204: [ x109 * x209 ] = 0
 e205: [ x110 * x210 ] = 0
 e206: [ x111 * x211 ] = 0
 e207: [ x112 * x212 ] = 0
 e208: [ x113 * x213 ] = 0
 e209: [ x114 * x214 ] = 0
 e210: [ x115 * x215 ] = 0
 e211: [ x116 * x216 ] = 0
 e212: [ x117 * x217 ] = 0
 e213: [ x118 * x218 ] = 0
 e214: [ x119 * x219 ] = 0
 e215: [ x120 * x220 ] = 0
 e216: [ x121 * x221 ] = 0
 e217: [ x122 * x222 ] = 0
 e218: [ x123 * x223 ] = 0
 e219: [ x124 * x224 ] = 0
 e220: [ x125 * x225 ] = 0
 e221: [ x126 * x226 ] = 0
 e222: [ x127 * x227 ] = 0
 e223: [ x128 * x228 ] = 0
 e224: [ x129 * x229 ] = 0
 e225: [ x130 * x230 ] = 0
 e226: [ x131 * x231 ] = 0
 e227: [ x132 * x232 ] = 0
 e228: [ x133 * x233 ] = 0
 e229: [ x134 * x234 ] = 0
 e230: [ x135 * x235 ] = 0
 e231: [ x136 * x236 ] = 0
 e232: [ x137 * x237 ] = 0
 e233: [ x138 * x238 ] = 0
 e234: [ x139 * x239 ] = 0
 e235: [ x140 * x240 ] = 0
 e236: [ x141 * x241 ] = 0
 e237: [ x142 * x242 ] = 0
 e238: [ x143 * x243 ] = 0
 e239: [ x144 * x244 ] = 0
 e240: [ x145 * x245 ] = 0
 e241: [ x146 * x246 ] = 0
 e242: [ x147 * x247 ] = 0
 e243: [ x148 * x248 ] = 0
 e244: [ x149 * x249 ] = 0
 e245: [ x150 * x250 ] = 0
 e246: [ x151 * x251 ] = 0
 e247: [ x152 * x252 ] = 0
 e248: [ x153 * x253 ] = 0
 e249: [ x154 * x254 ] = 0
 e250: [ x155 * x255 ] = 0
 e251: [ x156 * x256 ] = 0
 e252: [ x157 * x257 ] = 0
 e253: [ x158 * x258 ] = 0
 e254: [ x159 * x259 ] = 0
 e255: [ x160 * x260 ] = 0
 e256: [ x161 * x261 ] = 0
 e257: [ x162 * x262 ] = 0
 e258: [ x163 * x263 ] = 0
 e259: [ x164 * x264 ] = 0
 e260: [ x165 * x265 ] = 0
 e261: [ x166 * x266 ] = 0
 e262: [ x167 * x267 ] = 0
 e263: [ x168 * x268 ] = 0
 e264: [ x169 * x269 ] = 0
 e265: [ x170 * x270 ] = 0
 e266: [ x171 * x271 ] = 0
 e267: [ x172 * x272 ] = 0
 e268: [ x173 * x273 ] = 0
 e269: [ x174 * x274 ] = 0
 e270: [ x175 * x275 ] = 0
 e271: [ x176 * x276 ] = 0
 e272: [ x177 * x277 ] = 0
 e273: [ x178 * x278 ] = 0
 e274: [ x179 * x279 ] = 0
 e275: [ x180 * x280 ] = 0
 e276: [ x181 * x281 ] = 0
 e277: [ x182 * x282 ] = 0
 e278: [ x183 * x283 ] = 0
 e279: [ x184 * x284 ] = 0
 e280: [ x185 * x285 ] = 0
 e281: [ x186 * x286 ] = 0
 e282: [ x187 * x287 ] = 0
 e283: [ x188 * x288 ] = 0
 e284: [ x189 * x289 ] = 0
 e285: [ x190 * x290 ] = 0
 e286: [ x191 * x291 ] = 0
 e287: [ x192 * x292 ] = 0
 e288: [ x193 * x293 ] = 0
 e289: [ x194 * x294 ] = 0
 e290: [ x195 * x295 ] = 0
 e291: [ x196 * x296 ] = 0
 e292: [ x197 * x297 ] = 0
 e293: [ x198 * x298 ] = 0
 e294: [ x199 * x299 ] = 0
 e295: [ x200 * x300 ] = 0
 e296: [ x201 * x301 ] = 0
 e297: [ x202 * x302 ] = 0
 e298: [ x203 * x303 ] = 0
 e299: [ x204 * x304 ] = 0
 e300: [ x205 * x305 ] = 0
 e301: [ x206 * x306 ] = 0

Bounds
 x102 Free
 x103 Free
 x104 Free
 x105 Free
 x106 Free
 x207 Free
 x208 Free
 x209 Free
 x210 Free
 x211 Free
 x212 Free
 x213 Free
 x214 Free
 x215 Free
 x216 Free
 x217 Free
 x218 Free
 x219 Free
 x220 Free
 x221 Free
 x222 Free
 x223 Free
 x224 Free
 x225 Free
 x226 Free
 x227 Free
 x228 Free
 x229 Free
 x230 Free
 x231 Free
 x232 Free
 x233 Free
 x234 Free
 x235 Free
 x236 Free
 x237 Free
 x238 Free
 x239 Free
 x240 Free
 x241 Free
 x242 Free
 x243 Free
 x244 Free
 x245 Free
 x246 Free
 x247 Free
 x248 Free
 x249 Free
 x250 Free
 x251 Free
 x252 Free
 x253 Free
 x254 Free
 x255 Free
 x256 Free
 x257 Free
 x258 Free
 x259 Free
 x260 Free
 x261 Free
 x262 Free
 x263 Free
 x264 Free
 x265 Free
 x266 Free
 x267 Free
 x268 Free
 x269 Free
 x270 Free
 x271 Free
 x272 Free
 x273 Free
 x274 Free
 x275 Free
 x276 Free
 x277 Free
 x278 Free
 x279 Free
 x280 Free
 x281 Free
 x282 Free
 x283 Free
 x284 Free
 x285 Free
 x286 Free
 x287 Free
 x288 Free
 x289 Free
 x290 Free
 x291 Free
 x292 Free
 x293 Free
 x294 Free
 x295 Free
 x296 Free
 x297 Free
 x298 Free
 x299 Free
 x300 Free
 x301 Free
 x302 Free
 x303 Free
 x304 Free
 x305 Free
 x306 Free

Binary
 b2 b3 b4 b5 b6 b7 b8 b9 b10 b11 b12 b13 b14 b15 b16 b17 b18 b19 b20 b21 b22 b23 b24 b25 b26
 b27 b28 b29 b30 b31 b32 b33 b34 b35 b36 b37 b38 b39 b40 b41 b42 b43 b44 b45 b46 b47 b48 b49
 b50 b51 b52 b53 b54 b55 b56 b57 b58 b59 b60 b61 b62 b63 b64 b65 b66 b67 b68 b69 b70 b71 b72
 b73 b74 b75 b76 b77 b78 b79 b80 b81 b82 b83 b84 b85 b86 b87 b88 b89 b90 b91 b92 b93 b94 b95
 b96 b97 b98 b99 b100 b101

End
