\ Equation counts
\     Total        E        G        L        N        X        C        B
\       386      343       15       28        0        0        0        0
\ 
\ Variable counts
\                  x        b        i      s1s      s2s       sc       si
\     Total     cont   binary  integer     sos1     sos2    scont     sint
\       390      390        0        0        0        0        0        0
\ 
\ Nonzero counts
\     Total    const       NL      DLL
\      1348      748      600        0
\ 
Minimize
 obj: 0 x2 + 0 x3 + 0 x4 + 0 x5 + 0 x6 + 0 x7 + 0 x8 + 0 x9 + 0 x10 + 0 x11 + 0 x12 + 0 x13 + 0 x14 + 0 x15 
  + 0 x16 + 0 x17 + 0 x18 + 0 x19 + 0 x20 + 0 x21 + 0 x22 + 0 x23 + 0 x24 + 0 x25 + 0 x26 + 0 x27 + 0 x28 
  + 0 x29 + 0 x30 + 0 x31 + 0 x32 + 0 x33 + 0 x34 + 0 x35 + 0 x36 + 0 x37 + 0 x38 + 0 x39 + 0 x40 + 0 x41 
  + 0 x42 + 0 x43 + 0 x44 + 0 x45 + 0 x46 + 0 x47 + 0 x48 + 0 x49 + 0 x50 + 0 x51 + 0 x52 + 0 x53 + 0 x54 
  + 0 x55 + 0 x56 + 0 x57 + 0 x58 + 0 x59 + 0 x60 + 0 x61 + 0 x62 + 0 x63 + 0 x64 + 0 x65 + 0 x66 + 0 x67 
  + 0 x68 + 0 x69 + 0 x70 + 0 x71 + 0 x72 + 0 x73 + 0 x74 + 0 x75 + 0 x76 + 0 x77 + 0 x78 + 0 x79 + 0 x80 
  + 0 x81 + 0 x82 + 0 x83 + 0 x84 + 0 x85 + 0 x86 + 0 x87 + 0 x88 + 0 x89 + 0 x90 + 0 x91 + 0 x92 + 0 x93 
  + 0 x94 + 0 x95 + 0 x96 + 0 x97 + 0 x98 + 0 x99 + 0 x100 + 0 x101 + 0 x102 + 0 x103 + 0 x104 + 0 x105 
  + 0 x106 + 0 x107 + 0 x108 + 0 x109 + 0 x110 + 0 x111 + 0 x112 + 0 x113 + 0 x114 + 0 x115 + 0 x116 
  + 0 x117 + 0 x118 + 0 x119 + 0 x120 + 0 x121 + 0 x122 + 0 x123 + 0 x124 + 0 x125 + x126 + 0 x127 + 0 x128 
  + 0 x129 + 0 x130 + 0 x131 + 0 x132 + 0 x133 + 0 x134 + 0 x135 + 0 x136 + 0 x137 + 0 x138 + 0 x139 
  + 0 x140 + 0 x141 + 0 x142 + 0 x143 + 0 x144 + 0 x145 + 0 x146 + 0 x147 + 0 x148 + 0 x149 + 0 x150 
  + 0 x151 + 0 x152 + 0 x153 + 0 x154 + 0 x155 + 0 x156 + 0 x157 + 0 x158 + 0 x159 + 0 x160 + 0 x161 
  + 0 x162 + 0 x163 + 0 x164 + 0 x165 + 0 x166 + 0 x167 + 0 x168 + 0 x169 + 0 x170 + 0 x171 + 0 x172 
  + 0 x173 + 0 x174 + 0 x175 + 0 x176 + 0 x177 + 0 x178 + 0 x179 + 0 x180 + 0 x181 + 0 x182 + 0 x183 
  + 0 x184 + 0 x185 + 0 x186 + 0 x187 + 0 x188 + 0 x189 + 0 x190 + 0 x191 + 0 x192 + 0 x193 + 0 x194 
  + 0 x195 + 0 x196 + 0 x197 + 0 x198 + 0 x199 + 0 x200 + 0 x201 + 0 x202 + 0 x203 + 0 x204 + 0 x205 
  + 0 x206 + 0 x207 + 0 x208 + 0 x209 + 0 x210 + 0 x211 + 0 x212 + 0 x213 + 0 x214 + 0 x215 + 0 x216 
  + 0 x217 + 0 x218 + 0 x219 + 0 x220 + 0 x221 + 0 x222 + 0 x223 + 0 x224 + 0 x225 + 0 x226 + 0 x227 
  + 0 x228 + 0 x229 + 0 x230 + 0 x231 + 0 x232 + 0 x233 + 0 x234 + 0 x235 + 0 x236 + 0 x237 + 0 x238 
  + 0 x239 + 0 x240 + 0 x241 + 0 x242 + 0 x243 + 0 x244 + 0 x245 + 0 x246 + 0 x247 + 0 x248 + 0 x249 
  + 0 x250 + 0 x251 + 0 x252 + 0 x253 + 0 x254 + 0 x255 + 0 x256 + 0 x257 + 0 x258 + 0 x259 + 0 x260 
  + 0 x261 + 0 x262 + 0 x263 + 0 x264 + 0 x265 + 0 x266 + 0 x267 + 0 x268 + 0 x269 + 0 x270 + 0 x271 
  + 0 x272 + 0 x273 + 0 x274 + 0 x275 + 0 x276 + 0 x277 + 0 x278 + 0 x279 + 0 x280 + 0 x281 + 0 x282 
  + 0 x283 + 0 x284 + 0 x285 + 0 x286 + 0 x287 + 0 x288 + 0 x289 + 0 x290 + 0 x291 + 0 x292 + 0 x293 
  + 0 x294 + 0 x295 + 0 x296 + 0 x297 + 0 x298 + 0 x299 + 0 x300 + 0 x301 + 0 x302 + 0 x303 + 0 x304 
  + 0 x305 + 0 x306 + 0 x307 + 0 x308 + 0 x309 + 0 x310 + 0 x311 + 0 x312 + 0 x313 + 0 x314 + 0 x315 
  + 0 x316 + 0 x317 + 0 x318 + 0 x319 + 0 x320 + 0 x321 + 0 x322 + 0 x323 + 0 x324 + 0 x325 + 0 x326 
  + 0 x327 + 0 x328 + 0 x329 + 0 x330 + 0 x331 + 0 x332 + 0 x333 + 0 x334 + 0 x335 + 0 x336 + 0 x337 
  + 0 x338 + 0 x339 + 0 x340 + 0 x341 + 0 x342 + 0 x343 + 0 x344 + 0 x345 + 0 x346 + 0 x347 + 0 x348 
  + 0 x349 + 0 x350 + 0 x351 + 0 x352 + 0 x353 + 0 x354 + 0 x355 + 0 x356 + 0 x357 + 0 x358 + 0 x359 
  + 0 x360 + 0 x361 + 0 x362 + 0 x363 + 0 x364 + 0 x365 + 0 x366 + 0 x367 + 0 x368 + 0 x369 + 0 x370 
  + 0 x371 + 0 x372 + 0 x373 + 0 x374 + 0 x375 + 0 x376 + 0 x377 + 0 x378 + 0 x379 + 0 x380 + 0 x381 
  + 0 x382 + 0 x383 + 0 x384 + 0 x385 + 0 x386 + 0 x387 + 0 x388 + 0 x389 + 0 x390 + 0 x391

Subject To
 e2: x126 - x265 = -24.23937859
 e3: x266 - x267 <= -1.2
 e4: x268 - x269 <= -1.2
 e5: - x267 + x270 <= -0.6
 e6: - x269 + x271 <= -0.6
 e7: - x267 + x272 <= -0.8
 e8: - x269 + x273 <= -0.8
 e9: - x267 + x274 <= -1.7
 e10: - x269 + x275 <= -1.7
 e11: - x267 + x276 <= -1.3
 e12: - x269 + x277 <= -1.3
 e13: - x267 + x278 <= -0.5
 e14: - x269 + x279 <= -0.5
 e15: - x267 + x280 <= 0
 e16: - x269 + x281 <= 0
 e17: - x267 + x282 <= 0
 e18: - x269 + x283 <= 0
 e19: - x267 + x284 <= 0
 e20: - x269 + x285 <= 0
 e21: - x267 + x286 <= 0
 e22: - x269 + x287 <= 0
 e23: - x267 + x288 <= 0
 e24: - x269 + x289 <= 0
 e25: - x267 + x290 <= 0
 e26: - x269 + x291 <= 0
 e27: - x267 + x292 <= 0
 e28: - x269 + x293 <= 0
 e29: - x267 + x294 <= 0
 e30: - x269 + x295 <= 0
 e31: x280 - x282 + x296 = 0
 e32: x281 - x283 + x297 = 0
 e33: x282 - x284 + x298 = 0
 e34: x283 - x285 + x299 = 0
 e35: x284 - x286 + x300 = 0
 e36: x285 - x287 + x301 = 0
 e37: - x280 + 2 x286 + x302 - x303 = 0
 e38: - x281 + 2 x287 + x304 - x305 = 0
 e39: x288 - x290 + x306 = 0
 e40: x289 - x291 + x307 = 0
 e41: x290 - x292 + x308 = 0
 e42: x291 - x293 + x309 = 0
 e43: x292 - x294 + x310 = 0
 e44: x293 - x295 + x311 = 0
 e45: - x288 + 2 x294 + x312 - x313 = 0
 e46: - x289 + 2 x295 + x314 - x315 = 0
 e47: x296 + x300 = 0
 e48: x297 + x301 = 0
 e49: x298 + x302 = 0
 e50: x299 + x304 = 0
 e51: x306 + x310 = 0
 e52: x307 + x311 = 0
 e53: x308 + x312 = 0
 e54: x309 + x314 = 0
 e55: - x316 + x317 = 0
 e56: x318 + x319 = 0
 e57: - x320 + x321 = 0
 e58: - x322 + x323 = 0
 e59: - x324 + x325 = 0
 e60: - x326 + x327 = 0
 e61: - x328 + x329 = 0
 e62: - x330 + x331 = 0
 e63: - x332 + x333 = 0
 e64: - x334 + x335 = 0
 e65: - x336 + x337 = 0
 e66: - x338 + x339 = 0
 e67: - x340 + x341 = 0
 e68: - x342 + x343 = 0
 e69: x344 + x345 = 0
 e70: x346 + x347 = 0
 e71: x348 + x349 = 0
 e72: x350 + x351 = 0
 e73: x352 + x353 = 0
 e74: x354 + x355 = 0
 e75: x356 + x357 = 0
 e76: x358 + x359 = 0
 e77: x360 + x361 = 0
 e78: x362 + x363 = 0
 e79: x364 + x365 = 0
 e80: x366 + x367 = 0
 e81: 1.2 x321 + x368 = 0
 e82: 1.2 x345 + x369 = 0
 e83: 0.6 x323 + x370 = 0
 e84: 0.6 x347 + x371 = 0
 e85: 0.8 x325 + x372 = 0
 e86: 0.8 x349 + x373 = 0
 e87: 1.7 x327 + x374 = 0
 e88: 1.7 x351 + x375 = 0
 e89: 1.3 x329 + x376 = 0
 e90: 1.3 x353 + x377 = 0
 e91: 0.5 x331 + x378 = 0
 e92: 0.5 x355 + x379 = 0
 e93: 1.2 x333 + x380 = 0
 e94: 1.2 x357 + x381 = 0
 e95: 0.6 x335 + x382 = 0
 e96: 0.6 x359 + x383 = 0
 e97: 0.8 x337 + x384 = 0
 e98: 0.8 x361 + x385 = 0
 e99: 1.7 x339 + x386 = 0
 e100: 1.7 x363 + x387 = 0
 e101: 1.3 x341 + x388 = 0
 e102: 1.3 x365 + x389 = 0
 e103: 0.5 x343 + x390 = 0
 e104: 0.5 x367 + x391 = 0
 e105: x265 + [ - x267 * x269 ] = 0
 e106: x127 + x128 - x280 + [ x10 * x318 ] = 0
 e107: x129 + x130 - x281 + [ x10 * x316 ] = 0
 e108: x127 + x131 - x282 + [ x11 * x318 ] = 0
 e109: x129 + x132 - x283 + [ x11 * x316 ] = 0
 e110: x127 + x133 - x284 + [ x12 * x318 ] = 0
 e111: x129 + x134 - x285 + [ x12 * x316 ] = 0
 e112: x127 + x135 - x286 + [ x13 * x318 ] = 0
 e113: x129 + x136 - x287 + [ x13 * x316 ] = 0
 e114: x127 + x137 - x288 + [ x14 * x318 ] = 0
 e115: x129 + x138 - x289 + [ x14 * x316 ] = 0
 e116: x127 + x139 - x290 + [ x15 * x318 ] = 0
 e117: x129 + x140 - x291 + [ x15 * x316 ] = 0
 e118: x127 + x141 - x292 + [ x16 * x318 ] = 0
 e119: x129 + x142 - x293 + [ x16 * x316 ] = 0
 e120: x127 + x143 - x294 + [ x17 * x318 ] = 0
 e121: x129 + x144 - x295 + [ x17 * x316 ] = 0
 e122: x128 + [ - x2 * x317 ] = 0
 e123: x130 + [ - x2 * x319 ] = 0
 e124: x131 + [ - x3 * x317 ] = 0
 e125: x132 + [ - x3 * x319 ] = 0
 e126: x133 + [ - x4 * x317 ] = 0
 e127: x134 + [ - x4 * x319 ] = 0
 e128: x135 + [ - x5 * x317 ] = 0
 e129: x136 + [ - x5 * x319 ] = 0
 e130: x137 + [ x6 * x317 ] = 0
 e131: x138 + [ x6 * x319 ] = 0
 e132: x139 + [ x7 * x317 ] = 0
 e133: x140 + [ x7 * x319 ] = 0
 e134: x141 + [ x8 * x317 ] = 0
 e135: x142 + [ x8 * x319 ] = 0
 e136: x143 + [ x9 * x317 ] = 0
 e137: x144 + [ x9 * x319 ] = 0
 e138: x145 + x146 - x280 + [ x66 * x344 ] = 0
 e139: x147 + x148 - x281 + [ x66 * x320 ] = 0
 e140: x145 + x149 - x282 + [ x67 * x344 ] = 0
 e141: x147 + x150 - x283 + [ x67 * x320 ] = 0
 e142: x145 + x151 - x284 + [ x68 * x344 ] = 0
 e143: x147 + x152 - x285 + [ x68 * x320 ] = 0
 e144: x145 + x153 - x286 + [ x69 * x344 ] = 0
 e145: x147 + x154 - x287 + [ x69 * x320 ] = 0
 e146: x155 + x156 - x280 + [ x70 * x346 ] = 0
 e147: x157 + x158 - x281 + [ x70 * x322 ] = 0
 e148: x155 + x159 - x282 + [ x71 * x346 ] = 0
 e149: x157 + x160 - x283 + [ x71 * x322 ] = 0
 e150: x155 + x161 - x284 + [ x72 * x346 ] = 0
 e151: x157 + x162 - x285 + [ x72 * x322 ] = 0
 e152: x155 + x163 - x286 + [ x73 * x346 ] = 0
 e153: x157 + x164 - x287 + [ x73 * x322 ] = 0
 e154: x165 + x166 - x280 + [ x74 * x348 ] = 0
 e155: x167 + x168 - x281 + [ x74 * x324 ] = 0
 e156: x165 + x169 - x282 + [ x75 * x348 ] = 0
 e157: x167 + x170 - x283 + [ x75 * x324 ] = 0
 e158: x165 + x171 - x284 + [ x76 * x348 ] = 0
 e159: x167 + x172 - x285 + [ x76 * x324 ] = 0
 e160: x165 + x173 - x286 + [ x77 * x348 ] = 0
 e161: x167 + x174 - x287 + [ x77 * x324 ] = 0
 e162: x175 + x176 - x280 + [ x78 * x350 ] = 0
 e163: x177 + x178 - x281 + [ x78 * x326 ] = 0
 e164: x175 + x179 - x282 + [ x79 * x350 ] = 0
 e165: x177 + x180 - x283 + [ x79 * x326 ] = 0
 e166: x175 + x181 - x284 + [ x80 * x350 ] = 0
 e167: x177 + x182 - x285 + [ x80 * x326 ] = 0
 e168: x175 + x183 - x286 + [ x81 * x350 ] = 0
 e169: x177 + x184 - x287 + [ x81 * x326 ] = 0
 e170: x185 + x186 - x280 + [ x82 * x352 ] = 0
 e171: x187 + x188 - x281 + [ x82 * x328 ] = 0
 e172: x185 + x189 - x282 + [ x83 * x352 ] = 0
 e173: x187 + x190 - x283 + [ x83 * x328 ] = 0
 e174: x185 + x191 - x284 + [ x84 * x352 ] = 0
 e175: x187 + x192 - x285 + [ x84 * x328 ] = 0
 e176: x185 + x193 - x286 + [ x85 * x352 ] = 0
 e177: x187 + x194 - x287 + [ x85 * x328 ] = 0
 e178: x195 + x196 - x280 + [ x86 * x354 ] = 0
 e179: x197 + x198 - x281 + [ x86 * x330 ] = 0
 e180: x195 + x199 - x282 + [ x87 * x354 ] = 0
 e181: x197 + x200 - x283 + [ x87 * x330 ] = 0
 e182: x195 + x201 - x284 + [ x88 * x354 ] = 0
 e183: x197 + x202 - x285 + [ x88 * x330 ] = 0
 e184: x195 + x203 - x286 + [ x89 * x354 ] = 0
 e185: x197 + x204 - x287 + [ x89 * x330 ] = 0
 e186: x205 + x206 - x288 + [ x90 * x356 ] = 0
 e187: x207 + x208 - x289 + [ x90 * x332 ] = 0
 e188: x205 + x209 - x290 + [ x91 * x356 ] = 0
 e189: x207 + x210 - x291 + [ x91 * x332 ] = 0
 e190: x205 + x211 - x292 + [ x92 * x356 ] = 0
 e191: x207 + x212 - x293 + [ x92 * x332 ] = 0
 e192: x205 + x213 - x294 + [ x93 * x356 ] = 0
 e193: x207 + x214 - x295 + [ x93 * x332 ] = 0
 e194: x215 + x216 - x288 + [ x94 * x358 ] = 0
 e195: x217 + x218 - x289 + [ x94 * x334 ] = 0
 e196: x215 + x219 - x290 + [ x95 * x358 ] = 0
 e197: x217 + x220 - x291 + [ x95 * x334 ] = 0
 e198: x215 + x221 - x292 + [ x96 * x358 ] = 0
 e199: x217 + x222 - x293 + [ x96 * x334 ] = 0
 e200: x215 + x223 - x294 + [ x97 * x358 ] = 0
 e201: x217 + x224 - x295 + [ x97 * x334 ] = 0
 e202: x225 + x226 - x288 + [ x98 * x360 ] = 0
 e203: x227 + x228 - x289 + [ x98 * x336 ] = 0
 e204: x225 + x229 - x290 + [ x99 * x360 ] = 0
 e205: x227 + x230 - x291 + [ x99 * x336 ] = 0
 e206: x225 + x231 - x292 + [ x100 * x360 ] = 0
 e207: x227 + x232 - x293 + [ x100 * x336 ] = 0
 e208: x225 + x233 - x294 + [ x101 * x360 ] = 0
 e209: x227 + x234 - x295 + [ x101 * x336 ] = 0
 e210: x235 + x236 - x288 + [ x102 * x362 ] = 0
 e211: x237 + x238 - x289 + [ x102 * x338 ] = 0
 e212: x235 + x239 - x290 + [ x103 * x362 ] = 0
 e213: x237 + x240 - x291 + [ x103 * x338 ] = 0
 e214: x235 + x241 - x292 + [ x104 * x362 ] = 0
 e215: x237 + x242 - x293 + [ x104 * x338 ] = 0
 e216: x235 + x243 - x294 + [ x105 * x362 ] = 0
 e217: x237 + x244 - x295 + [ x105 * x338 ] = 0
 e218: x245 + x246 - x288 + [ x106 * x364 ] = 0
 e219: x247 + x248 - x289 + [ x106 * x340 ] = 0
 e220: x245 + x249 - x290 + [ x107 * x364 ] = 0
 e221: x247 + x250 - x291 + [ x107 * x340 ] = 0
 e222: x245 + x251 - x292 + [ x108 * x364 ] = 0
 e223: x247 + x252 - x293 + [ x108 * x340 ] = 0
 e224: x245 + x253 - x294 + [ x109 * x364 ] = 0
 e225: x247 + x254 - x295 + [ x109 * x340 ] = 0
 e226: x255 + x256 - x288 + [ x110 * x366 ] = 0
 e227: x257 + x258 - x289 + [ x110 * x342 ] = 0
 e228: x255 + x259 - x290 + [ x111 * x366 ] = 0
 e229: x257 + x260 - x291 + [ x111 * x342 ] = 0
 e230: x255 + x261 - x292 + [ x112 * x366 ] = 0
 e231: x257 + x262 - x293 + [ x112 * x342 ] = 0
 e232: x255 + x263 - x294 + [ x113 * x366 ] = 0
 e233: x257 + x264 - x295 + [ x113 * x342 ] = 0
 e234: x145 - x266 + x368 + [ x114 * x344 ] = 0
 e235: x147 - x268 + x369 + [ x114 * x320 ] = 0
 e236: x155 - x270 + x370 + [ x116 * x346 ] = 0
 e237: x157 - x271 + x371 + [ x116 * x322 ] = 0
 e238: x165 - x272 + x372 + [ x118 * x348 ] = 0
 e239: x167 - x273 + x373 + [ x118 * x324 ] = 0
 e240: x175 - x274 + x374 + [ x120 * x350 ] = 0
 e241: x177 - x275 + x375 + [ x120 * x326 ] = 0
 e242: x185 - x276 + x376 + [ x122 * x352 ] = 0
 e243: x187 - x277 + x377 + [ x122 * x328 ] = 0
 e244: x195 - x278 + x378 + [ x124 * x354 ] = 0
 e245: x197 - x279 + x379 + [ x124 * x330 ] = 0
 e246: x205 - x266 + x380 + [ x115 * x356 ] = 0
 e247: x207 - x268 + x381 + [ x115 * x332 ] = 0
 e248: x215 - x270 + x382 + [ x117 * x358 ] = 0
 e249: x217 - x271 + x383 + [ x117 * x334 ] = 0
 e250: x225 - x272 + x384 + [ x119 * x360 ] = 0
 e251: x227 - x273 + x385 + [ x119 * x336 ] = 0
 e252: x235 - x274 + x386 + [ x121 * x362 ] = 0
 e253: x237 - x275 + x387 + [ x121 * x338 ] = 0
 e254: x245 - x276 + x388 + [ x123 * x364 ] = 0
 e255: x247 - x277 + x389 + [ x123 * x340 ] = 0
 e256: x255 - x278 + x390 + [ x125 * x366 ] = 0
 e257: x257 - x279 + x391 + [ x125 * x342 ] = 0
 e258: x146 + [ - x18 * x321 ] = 0
 e259: x148 + [ - x18 * x345 ] = 0
 e260: x149 + [ - x19 * x321 ] = 0
 e261: x150 + [ - x19 * x345 ] = 0
 e262: x151 + [ - x20 * x321 ] = 0
 e263: x152 + [ - x20 * x345 ] = 0
 e264: x153 + [ - x21 * x321 ] = 0
 e265: x154 + [ - x21 * x345 ] = 0
 e266: x156 + [ - x22 * x323 ] = 0
 e267: x158 + [ - x22 * x347 ] = 0
 e268: x159 + [ - x23 * x323 ] = 0
 e269: x160 + [ - x23 * x347 ] = 0
 e270: x161 + [ - x24 * x323 ] = 0
 e271: x162 + [ - x24 * x347 ] = 0
 e272: x163 + [ - x25 * x323 ] = 0
 e273: x164 + [ - x25 * x347 ] = 0
 e274: x166 + [ - x26 * x325 ] = 0
 e275: x168 + [ - x26 * x349 ] = 0
 e276: x169 + [ - x27 * x325 ] = 0
 e277: x170 + [ - x27 * x349 ] = 0
 e278: x171 + [ - x28 * x325 ] = 0
 e279: x172 + [ - x28 * x349 ] = 0
 e280: x173 + [ - x29 * x325 ] = 0
 e281: x174 + [ - x29 * x349 ] = 0
 e282: x176 + [ - x30 * x327 ] = 0
 e283: x178 + [ - x30 * x351 ] = 0
 e284: x179 + [ - x31 * x327 ] = 0
 e285: x180 + [ - x31 * x351 ] = 0
 e286: x181 + [ - x32 * x327 ] = 0
 e287: x182 + [ - x32 * x351 ] = 0
 e288: x183 + [ - x33 * x327 ] = 0
 e289: x184 + [ - x33 * x351 ] = 0
 e290: x186 + [ - x34 * x329 ] = 0
 e291: x188 + [ - x34 * x353 ] = 0
 e292: x189 + [ - x35 * x329 ] = 0
 e293: x190 + [ - x35 * x353 ] = 0
 e294: x191 + [ - x36 * x329 ] = 0
 e295: x192 + [ - x36 * x353 ] = 0
 e296: x193 + [ - x37 * x329 ] = 0
 e297: x194 + [ - x37 * x353 ] = 0
 e298: x196 + [ - x38 * x331 ] = 0
 e299: x198 + [ - x38 * x355 ] = 0
 e300: x199 + [ - x39 * x331 ] = 0
 e301: x200 + [ - x39 * x355 ] = 0
 e302: x201 + [ - x40 * x331 ] = 0
 e303: x202 + [ - x40 * x355 ] = 0
 e304: x203 + [ - x41 * x331 ] = 0
 e305: x204 + [ - x41 * x355 ] = 0
 e306: x206 + [ - x42 * x333 ] = 0
 e307: x208 + [ - x42 * x357 ] = 0
 e308: x209 + [ - x43 * x333 ] = 0
 e309: x210 + [ - x43 * x357 ] = 0
 e310: x211 + [ - x44 * x333 ] = 0
 e311: x212 + [ - x44 * x357 ] = 0
 e312: x213 + [ - x45 * x333 ] = 0
 e313: x214 + [ - x45 * x357 ] = 0
 e314: x216 + [ - x46 * x335 ] = 0
 e315: x218 + [ - x46 * x359 ] = 0
 e316: x219 + [ - x47 * x335 ] = 0
 e317: x220 + [ - x47 * x359 ] = 0
 e318: x221 + [ - x48 * x335 ] = 0
 e319: x222 + [ - x48 * x359 ] = 0
 e320: x223 + [ - x49 * x335 ] = 0
 e321: x224 + [ - x49 * x359 ] = 0
 e322: x226 + [ - x50 * x337 ] = 0
 e323: x228 + [ - x50 * x361 ] = 0
 e324: x229 + [ - x51 * x337 ] = 0
 e325: x230 + [ - x51 * x361 ] = 0
 e326: x231 + [ - x52 * x337 ] = 0
 e327: x232 + [ - x52 * x361 ] = 0
 e328: x233 + [ - x53 * x337 ] = 0
 e329: x234 + [ - x53 * x361 ] = 0
 e330: x236 + [ - x54 * x339 ] = 0
 e331: x238 + [ - x54 * x363 ] = 0
 e332: x239 + [ - x55 * x339 ] = 0
 e333: x240 + [ - x55 * x363 ] = 0
 e334: x241 + [ - x56 * x339 ] = 0
 e335: x242 + [ - x56 * x363 ] = 0
 e336: x243 + [ - x57 * x339 ] = 0
 e337: x244 + [ - x57 * x363 ] = 0
 e338: x246 + [ - x58 * x341 ] = 0
 e339: x248 + [ - x58 * x365 ] = 0
 e340: x249 + [ - x59 * x341 ] = 0
 e341: x250 + [ - x59 * x365 ] = 0
 e342: x251 + [ - x60 * x341 ] = 0
 e343: x252 + [ - x60 * x365 ] = 0
 e344: x253 + [ - x61 * x341 ] = 0
 e345: x254 + [ - x61 * x365 ] = 0
 e346: x256 + [ - x62 * x343 ] = 0
 e347: x258 + [ - x62 * x367 ] = 0
 e348: x259 + [ - x63 * x343 ] = 0
 e349: x260 + [ - x63 * x367 ] = 0
 e350: x261 + [ - x64 * x343 ] = 0
 e351: x262 + [ - x64 * x367 ] = 0
 e352: x263 + [ - x65 * x343 ] = 0
 e353: x264 + [ - x65 * x367 ] = 0
 e354: [ x266^2 - 2 x266 * x270 + x268^2 - 2 x268 * x271 + x270^2 + x271^2 ] >= 3.24
 e355: [ x266^2 - 2 x266 * x272 + x268^2 - 2 x268 * x273 + x272^2 + x273^2 ] >= 4
 e356: [ x266^2 - 2 x266 * x274 + x268^2 - 2 x268 * x275 + x274^2 + x275^2 ] >= 8.41
 e357: [ x266^2 - 2 x266 * x276 + x268^2 - 2 x268 * x277 + x276^2 + x277^2 ] >= 6.25
 e358: [ x266^2 - 2 x266 * x278 + x268^2 - 2 x268 * x279 + x278^2 + x279^2 ] >= 2.89
 e359: [ x270^2 - 2 x270 * x272 + x271^2 - 2 x271 * x273 + x272^2 + x273^2 ] >= 1.96
 e360: [ x270^2 - 2 x270 * x274 + x271^2 - 2 x271 * x275 + x274^2 + x275^2 ] >= 5.29
 e361: [ x270^2 - 2 x270 * x276 + x271^2 - 2 x271 * x277 + x276^2 + x277^2 ] >= 3.61
 e362: [ x270^2 - 2 x270 * x278 + x271^2 - 2 x271 * x279 + x278^2 + x279^2 ] >= 1.21
 e363: [ x272^2 - 2 x272 * x274 + x273^2 - 2 x273 * x275 + x274^2 + x275^2 ] >= 6.25
 e364: [ x272^2 - 2 x272 * x276 + x273^2 - 2 x273 * x277 + x276^2 + x277^2 ] >= 4.41
 e365: [ x272^2 - 2 x272 * x278 + x273^2 - 2 x273 * x279 + x278^2 + x279^2 ] >= 1.69
 e366: [ x274^2 - 2 x274 * x276 + x275^2 - 2 x275 * x277 + x276^2 + x277^2 ] >= 9
 e367: [ x274^2 - 2 x274 * x278 + x275^2 - 2 x275 * x279 + x278^2 + x279^2 ] >= 4.84
 e368: [ x276^2 - 2 x276 * x278 + x277^2 - 2 x277 * x279 + x278^2 + x279^2 ] >= 3.24
 e369: [ x296^2 + x297^2 ] = 0.25
 e370: [ x306^2 + x307^2 ] = 1
 e371: [ x298^2 + x299^2 ] = 0.64
 e372: [ x308^2 + x309^2 ] = 1
 e373: [ x316^2 + x318^2 ] = 1
 e374: [ x320^2 + x344^2 ] = 1
 e375: [ x322^2 + x346^2 ] = 1
 e376: [ x324^2 + x348^2 ] = 1
 e377: [ x326^2 + x350^2 ] = 1
 e378: [ x328^2 + x352^2 ] = 1
 e379: [ x330^2 + x354^2 ] = 1
 e380: [ x332^2 + x356^2 ] = 1
 e381: [ x334^2 + x358^2 ] = 1
 e382: [ x336^2 + x360^2 ] = 1
 e383: [ x338^2 + x362^2 ] = 1
 e384: [ x340^2 + x364^2 ] = 1
 e385: [ x342^2 + x366^2 ] = 1
 e386: [ x296 * x298 + x297 * x299 ] = 0
 e387: [ x306 * x308 + x307 * x309 ] = 0

Bounds
 x2 <= 9.848857802
 x3 <= 9.848857802
 x4 <= 9.848857802
 x5 <= 9.848857802
 x6 <= 9.848857802
 x7 <= 9.848857802
 x8 <= 9.848857802
 x9 <= 9.848857802
 -9.848857802 <= x10 <= 9.848857802
 -9.848857802 <= x11 <= 9.848857802
 -9.848857802 <= x12 <= 9.848857802
 -9.848857802 <= x13 <= 9.848857802
 -9.848857802 <= x14 <= 9.848857802
 -9.848857802 <= x15 <= 9.848857802
 -9.848857802 <= x16 <= 9.848857802
 -9.848857802 <= x17 <= 9.848857802
 x18 <= 9.848857802
 x19 <= 9.848857802
 x20 <= 9.848857802
 x21 <= 9.848857802
 x22 <= 9.848857802
 x23 <= 9.848857802
 x24 <= 9.848857802
 x25 <= 9.848857802
 x26 <= 9.848857802
 x27 <= 9.848857802
 x28 <= 9.848857802
 x29 <= 9.848857802
 x30 <= 9.848857802
 x31 <= 9.848857802
 x32 <= 9.848857802
 x33 <= 9.848857802
 x34 <= 9.848857802
 x35 <= 9.848857802
 x36 <= 9.848857802
 x37 <= 9.848857802
 x38 <= 9.848857802
 x39 <= 9.848857802
 x40 <= 9.848857802
 x41 <= 9.848857802
 x42 <= 9.848857802
 x43 <= 9.848857802
 x44 <= 9.848857802
 x45 <= 9.848857802
 x46 <= 9.848857802
 x47 <= 9.848857802
 x48 <= 9.848857802
 x49 <= 9.848857802
 x50 <= 9.848857802
 x51 <= 9.848857802
 x52 <= 9.848857802
 x53 <= 9.848857802
 x54 <= 9.848857802
 x55 <= 9.848857802
 x56 <= 9.848857802
 x57 <= 9.848857802
 x58 <= 9.848857802
 x59 <= 9.848857802
 x60 <= 9.848857802
 x61 <= 9.848857802
 x62 <= 9.848857802
 x63 <= 9.848857802
 x64 <= 9.848857802
 x65 <= 9.848857802
 -9.848857802 <= x66 <= 9.848857802
 -9.848857802 <= x67 <= 9.848857802
 -9.848857802 <= x68 <= 9.848857802
 -9.848857802 <= x69 <= 9.848857802
 -9.848857802 <= x70 <= 9.848857802
 -9.848857802 <= x71 <= 9.848857802
 -9.848857802 <= x72 <= 9.848857802
 -9.848857802 <= x73 <= 9.848857802
 -9.848857802 <= x74 <= 9.848857802
 -9.848857802 <= x75 <= 9.848857802
 -9.848857802 <= x76 <= 9.848857802
 -9.848857802 <= x77 <= 9.848857802
 -9.848857802 <= x78 <= 9.848857802
 -9.848857802 <= x79 <= 9.848857802
 -9.848857802 <= x80 <= 9.848857802
 -9.848857802 <= x81 <= 9.848857802
 -9.848857802 <= x82 <= 9.848857802
 -9.848857802 <= x83 <= 9.848857802
 -9.848857802 <= x84 <= 9.848857802
 -9.848857802 <= x85 <= 9.848857802
 -9.848857802 <= x86 <= 9.848857802
 -9.848857802 <= x87 <= 9.848857802
 -9.848857802 <= x88 <= 9.848857802
 -9.848857802 <= x89 <= 9.848857802
 -9.848857802 <= x90 <= 9.848857802
 -9.848857802 <= x91 <= 9.848857802
 -9.848857802 <= x92 <= 9.848857802
 -9.848857802 <= x93 <= 9.848857802
 -9.848857802 <= x94 <= 9.848857802
 -9.848857802 <= x95 <= 9.848857802
 -9.848857802 <= x96 <= 9.848857802
 -9.848857802 <= x97 <= 9.848857802
 -9.848857802 <= x98 <= 9.848857802
 -9.848857802 <= x99 <= 9.848857802
 -9.848857802 <= x100 <= 9.848857802
 -9.848857802 <= x101 <= 9.848857802
 -9.848857802 <= x102 <= 9.848857802
 -9.848857802 <= x103 <= 9.848857802
 -9.848857802 <= x104 <= 9.848857802
 -9.848857802 <= x105 <= 9.848857802
 -9.848857802 <= x106 <= 9.848857802
 -9.848857802 <= x107 <= 9.848857802
 -9.848857802 <= x108 <= 9.848857802
 -9.848857802 <= x109 <= 9.848857802
 -9.848857802 <= x110 <= 9.848857802
 -9.848857802 <= x111 <= 9.848857802
 -9.848857802 <= x112 <= 9.848857802
 -9.848857802 <= x113 <= 9.848857802
 -9.848857802 <= x114 <= 9.848857802
 -9.848857802 <= x115 <= 9.848857802
 -9.848857802 <= x116 <= 9.848857802
 -9.848857802 <= x117 <= 9.848857802
 -9.848857802 <= x118 <= 9.848857802
 -9.848857802 <= x119 <= 9.848857802
 -9.848857802 <= x120 <= 9.848857802
 -9.848857802 <= x121 <= 9.848857802
 -9.848857802 <= x122 <= 9.848857802
 -9.848857802 <= x123 <= 9.848857802
 -9.848857802 <= x124 <= 9.848857802
 -9.848857802 <= x125 <= 9.848857802
 x126 <= 36
 x127 <= 9
 -inf <= x128 <= 9.848857802
 x129 <= 4
 -inf <= x130 <= 9.848857802
 -inf <= x131 <= 9.848857802
 -inf <= x132 <= 9.848857802
 -inf <= x133 <= 9.848857802
 -inf <= x134 <= 9.848857802
 -inf <= x135 <= 9.848857802
 -inf <= x136 <= 9.848857802
 -inf <= x137 <= 9.848857802
 -inf <= x138 <= 9.848857802
 -inf <= x139 <= 9.848857802
 -inf <= x140 <= 9.848857802
 -inf <= x141 <= 9.848857802
 -inf <= x142 <= 9.848857802
 -inf <= x143 <= 9.848857802
 -inf <= x144 <= 9.848857802
 x145 <= 9
 -9.848857802 <= x146 <= 9.848857802
 x147 <= 4
 -9.848857802 <= x148 <= 9.848857802
 -9.848857802 <= x149 <= 9.848857802
 -9.848857802 <= x150 <= 9.848857802
 -9.848857802 <= x151 <= 9.848857802
 -9.848857802 <= x152 <= 9.848857802
 -9.848857802 <= x153 <= 9.848857802
 -9.848857802 <= x154 <= 9.848857802
 x155 <= 9
 -9.848857802 <= x156 <= 9.848857802
 x157 <= 4
 -9.848857802 <= x158 <= 9.848857802
 -9.848857802 <= x159 <= 9.848857802
 -9.848857802 <= x160 <= 9.848857802
 -9.848857802 <= x161 <= 9.848857802
 -9.848857802 <= x162 <= 9.848857802
 -9.848857802 <= x163 <= 9.848857802
 -9.848857802 <= x164 <= 9.848857802
 x165 <= 9
 -9.848857802 <= x166 <= 9.848857802
 x167 <= 4
 -9.848857802 <= x168 <= 9.848857802
 -9.848857802 <= x169 <= 9.848857802
 -9.848857802 <= x170 <= 9.848857802
 -9.848857802 <= x171 <= 9.848857802
 -9.848857802 <= x172 <= 9.848857802
 -9.848857802 <= x173 <= 9.848857802
 -9.848857802 <= x174 <= 9.848857802
 x175 <= 9
 -9.848857802 <= x176 <= 9.848857802
 x177 <= 4
 -9.848857802 <= x178 <= 9.848857802
 -9.848857802 <= x179 <= 9.848857802
 -9.848857802 <= x180 <= 9.848857802
 -9.848857802 <= x181 <= 9.848857802
 -9.848857802 <= x182 <= 9.848857802
 -9.848857802 <= x183 <= 9.848857802
 -9.848857802 <= x184 <= 9.848857802
 x185 <= 9
 -9.848857802 <= x186 <= 9.848857802
 x187 <= 4
 -9.848857802 <= x188 <= 9.848857802
 -9.848857802 <= x189 <= 9.848857802
 -9.848857802 <= x190 <= 9.848857802
 -9.848857802 <= x191 <= 9.848857802
 -9.848857802 <= x192 <= 9.848857802
 -9.848857802 <= x193 <= 9.848857802
 -9.848857802 <= x194 <= 9.848857802
 x195 <= 9
 -9.848857802 <= x196 <= 9.848857802
 x197 <= 4
 -9.848857802 <= x198 <= 9.848857802
 -9.848857802 <= x199 <= 9.848857802
 -9.848857802 <= x200 <= 9.848857802
 -9.848857802 <= x201 <= 9.848857802
 -9.848857802 <= x202 <= 9.848857802
 -9.848857802 <= x203 <= 9.848857802
 -9.848857802 <= x204 <= 9.848857802
 x205 <= 9
 -9.848857802 <= x206 <= 9.848857802
 x207 <= 4
 -9.848857802 <= x208 <= 9.848857802
 -9.848857802 <= x209 <= 9.848857802
 -9.848857802 <= x210 <= 9.848857802
 -9.848857802 <= x211 <= 9.848857802
 -9.848857802 <= x212 <= 9.848857802
 -9.848857802 <= x213 <= 9.848857802
 -9.848857802 <= x214 <= 9.848857802
 x215 <= 9
 -9.848857802 <= x216 <= 9.848857802
 x217 <= 4
 -9.848857802 <= x218 <= 9.848857802
 -9.848857802 <= x219 <= 9.848857802
 -9.848857802 <= x220 <= 9.848857802
 -9.848857802 <= x221 <= 9.848857802
 -9.848857802 <= x222 <= 9.848857802
 -9.848857802 <= x223 <= 9.848857802
 -9.848857802 <= x224 <= 9.848857802
 x225 <= 9
 -9.848857802 <= x226 <= 9.848857802
 x227 <= 4
 -9.848857802 <= x228 <= 9.848857802
 -9.848857802 <= x229 <= 9.848857802
 -9.848857802 <= x230 <= 9.848857802
 -9.848857802 <= x231 <= 9.848857802
 -9.848857802 <= x232 <= 9.848857802
 -9.848857802 <= x233 <= 9.848857802
 -9.848857802 <= x234 <= 9.848857802
 x235 <= 9
 -9.848857802 <= x236 <= 9.848857802
 x237 <= 4
 -9.848857802 <= x238 <= 9.848857802
 -9.848857802 <= x239 <= 9.848857802
 -9.848857802 <= x240 <= 9.848857802
 -9.848857802 <= x241 <= 9.848857802
 -9.848857802 <= x242 <= 9.848857802
 -9.848857802 <= x243 <= 9.848857802
 -9.848857802 <= x244 <= 9.848857802
 x245 <= 9
 -9.848857802 <= x246 <= 9.848857802
 x247 <= 4
 -9.848857802 <= x248 <= 9.848857802
 -9.848857802 <= x249 <= 9.848857802
 -9.848857802 <= x250 <= 9.848857802
 -9.848857802 <= x251 <= 9.848857802
 -9.848857802 <= x252 <= 9.848857802
 -9.848857802 <= x253 <= 9.848857802
 -9.848857802 <= x254 <= 9.848857802
 x255 <= 9
 -9.848857802 <= x256 <= 9.848857802
 x257 <= 4
 -9.848857802 <= x258 <= 9.848857802
 -9.848857802 <= x259 <= 9.848857802
 -9.848857802 <= x260 <= 9.848857802
 -9.848857802 <= x261 <= 9.848857802
 -9.848857802 <= x262 <= 9.848857802
 -9.848857802 <= x263 <= 9.848857802
 -9.848857802 <= x264 <= 9.848857802
 2.89 <= x265 <= 36
 1.2 <= x266 <= 4.5
 x267 <= 9
 1.2 <= x268 <= 2
 x269 <= 4
 0.6 <= x270 <= 8.4
 0.6 <= x271 <= 3.4
 0.8 <= x272 <= 8.2
 0.8 <= x273 <= 3.2
 1.7 <= x274 <= 7.3
 1.7 <= x275 <= 2.3
 1.3 <= x276 <= 7.7
 1.3 <= x277 <= 2.7
 0.5 <= x278 <= 8.5
 0.5 <= x279 <= 3.5
 x280 <= 9
 x281 <= 4
 x282 <= 9
 x283 <= 4
 x284 <= 9
 x285 <= 4
 x286 <= 9
 x287 <= 4
 x288 <= 9
 x289 <= 4
 x290 <= 9
 x291 <= 4
 x292 <= 9
 x293 <= 4
 x294 <= 9
 x295 <= 4
 -0.8 <= x296 <= 0.8
 -0.5 <= x297 <= 0.5
 -0.8 <= x298 <= 0.8
 -0.5 <= x299 <= 0.5
 -0.8 <= x300 <= 0.8
 -0.5 <= x301 <= 0.5
 -0.8 <= x302 <= 0.8
 x303 <= 9
 -0.5 <= x304 <= 0.5
 x305 <= 4
 -1 <= x306 <= 1
 -1 <= x307 <= 1
 -1 <= x308 <= 1
 -1 <= x309 <= 1
 -1 <= x310 <= 1
 -1 <= x311 <= 1
 -1 <= x312 <= 1
 x313 <= 9
 -1 <= x314 <= 1
 x315 <= 4
 -1 <= x316 <= 1
 -1 <= x317 <= 1
 -1 <= x318 <= 1
 -1 <= x319 <= 1
 -1 <= x320 <= 1
 -1 <= x321 <= 1
 -1 <= x322 <= 1
 -1 <= x323 <= 1
 -1 <= x324 <= 1
 -1 <= x325 <= 1
 -1 <= x326 <= 1
 -1 <= x327 <= 1
 -1 <= x328 <= 1
 -1 <= x329 <= 1
 -1 <= x330 <= 1
 -1 <= x331 <= 1
 -1 <= x332 <= 1
 -1 <= x333 <= 1
 -1 <= x334 <= 1
 -1 <= x335 <= 1
 -1 <= x336 <= 1
 -1 <= x337 <= 1
 -1 <= x338 <= 1
 -1 <= x339 <= 1
 -1 <= x340 <= 1
 -1 <= x341 <= 1
 -1 <= x342 <= 1
 -1 <= x343 <= 1
 -1 <= x344 <= 1
 -1 <= x345 <= 1
 -1 <= x346 <= 1
 -1 <= x347 <= 1
 -1 <= x348 <= 1
 -1 <= x349 <= 1
 -1 <= x350 <= 1
 -1 <= x351 <= 1
 -1 <= x352 <= 1
 -1 <= x353 <= 1
 -1 <= x354 <= 1
 -1 <= x355 <= 1
 -1 <= x356 <= 1
 -1 <= x357 <= 1
 -1 <= x358 <= 1
 -1 <= x359 <= 1
 -1 <= x360 <= 1
 -1 <= x361 <= 1
 -1 <= x362 <= 1
 -1 <= x363 <= 1
 -1 <= x364 <= 1
 -1 <= x365 <= 1
 -1 <= x366 <= 1
 -1 <= x367 <= 1
 -9.848857802 <= x368 <= 9.848857802
 -9.848857802 <= x369 <= 9.848857802
 -9.848857802 <= x370 <= 9.848857802
 -9.848857802 <= x371 <= 9.848857802
 -9.848857802 <= x372 <= 9.848857802
 -9.848857802 <= x373 <= 9.848857802
 -9.848857802 <= x374 <= 9.848857802
 -9.848857802 <= x375 <= 9.848857802
 -9.848857802 <= x376 <= 9.848857802
 -9.848857802 <= x377 <= 9.848857802
 -9.848857802 <= x378 <= 9.848857802
 -9.848857802 <= x379 <= 9.848857802
 -9.848857802 <= x380 <= 9.848857802
 -9.848857802 <= x381 <= 9.848857802
 -9.848857802 <= x382 <= 9.848857802
 -9.848857802 <= x383 <= 9.848857802
 -9.848857802 <= x384 <= 9.848857802
 -9.848857802 <= x385 <= 9.848857802
 -9.848857802 <= x386 <= 9.848857802
 -9.848857802 <= x387 <= 9.848857802
 -9.848857802 <= x388 <= 9.848857802
 -9.848857802 <= x389 <= 9.848857802
 -9.848857802 <= x390 <= 9.848857802
 -9.848857802 <= x391 <= 9.848857802

End
