\ Equation counts
\     Total        E        G        L        N        X        C        B
\       317      233        0       84        0        0        0        0
\ 
\ Variable counts
\                  x        b        i      s1s      s2s       sc       si
\     Total     cont   binary  integer     sos1     sos2    scont     sint
\       351      183      168        0        0        0        0        0
\ 
\ Nonzero counts
\     Total    const       NL      DLL
\      2508      520     1988        0
\ 
Minimize
 obj: 0 x2 + 0 x3 + 0 x4 + 0 x5 + 0 x6 + 0 x7 + 0 x8 + 0 x9 + 0 x10 + 0 x11 + 0 x12 + 0 x13 + 0 x14 + 0 x15 
  + 0 x16 + 0 x17 + 0 x18 + 0 x19 + 0 x20 + 0 x21 + 0 x22 + 0 x23 + 0 x24 + 0 x25 + 0 x26 + 0 x27 + 0 x28 
  + 0 x29 + 0 x30 + 0 x31 + 0 x32 + 0 x33 + 0 x34 + 0 x35 + 0 x36 + 0 x37 + 0 x38 + 0 x39 + 0 x40 + 0 x41 
  + 0 x42 + 0 x43 + 0 x44 + 0 x45 + 0 x46 + 0 x47 + 0 x48 + 0 x49 + 0 x50 + 0 x51 + 0 x52 + 0 x53 + 0 x54 
  + 0 x55 + 0 x56 + 0 x57 + 0 x58 + 0 x59 + 0 x60 + 0 x61 + 0 x62 + 0 x63 + 0 x64 + 0 x65 + 0 x66 + 0 x67 
  + 0 x68 + 0 x69 + 0 x70 + 0 x71 + 0 x72 + 0 x73 + 0 x74 + 0 x75 + 0 x76 + 0 x77 + 0 x78 + 0 x79 + 0 x80 
  + 0 x81 + 0 x82 + 0 x83 + 0 x84 + 0 x85 + 0 x86 + 0 x87 + 0 x88 + 0 x89 + 0 x90 - x91 + 0 x92 + 0 x93 
  + 0 x94 + 0 x95 + 0 x96 + 0 x97 + 0 x98 + 0 x99 + 0 x100 + 0 x101 + 0 x102 + 0 x103 + 0 x104 + 0 x105 
  + 0 x106 + 0 x107 + 0 x108 + 0 x109 + 0 x110 + 0 x111 + 0 x112 + 0 x113 + 0 x114 + 0 x115 + 0 x116 
  + 0 x117 + 0 x118 + 0 x119 + 0 x120 + 0 x121 + 0 x122 + 0 x123 + 0 x124 + 0 x125 + 0 x126 + 0 x127 
  + 0 x128 + 0 x129 + 0 x130 + 0 x131 + 0 x132 + 0 x133 + 0 x134 + 0 x135 + 0 x136 + 0 x137 + 0 x138 
  + 0 x139 + 0 x140 + 0 x141 + 0 x142 + 0 x143 + 0 x144 + 0 x145 + 0 x146 + 0 x147 + 0 x148 + 0 x149 
  + 0 x150 + 0 x151 + 0 x152 + 0 x153 + 0 x154 + 0 x155 + 0 x156 + 0 x157 + 0 x158 + 0 x159 + 0 x160 
  + 0 x161 + 0 x162 + 0 x163 + 0 x164 + 0 x165 + 0 x166 + 0 x167 + 0 x168 + 0 x169 + 0 x170 + 0 x171 
  + 0 x172 + 0 x173 + 0 x174 + 0 x175 + 0 x176 + 0 x177 + 0 x178 + 0 x179 + 0 x180 + 0 x181 + 0 x182 
  + 0 x183 + 0 x184 + 0 b185 + 0 b186 + 0 b187 + 0 b188 + 0 b189 + 0 b190 + 0 b191 + 0 b192 + 0 b193 
  + 0 b194 + 0 b195 + 0 b196 + 0 b197 + 0 b198 + 0 b199 + 0 b200 + 0 b201 + 0 b202 + 0 b203 + 0 b204 
  + 0 b205 + 0 b206 + 0 b207 + 0 b208 + 0 b209 + 0 b210 + 0 b211 + 0 b212 + 0 b213 + 0 b214 + 0 b215 
  + 0 b216 + 0 b217 + 0 b218 + 0 b219 + 0 b220 + 0 b221 + 0 b222 + 0 b223 + 0 b224 + 0 b225 + 0 b226 
  + 0 b227 + 0 b228 + 0 b229 + 0 b230 + 0 b231 + 0 b232 + 0 b233 + 0 b234 + 0 b235 + 0 b236 + 0 b237 
  + 0 b238 + 0 b239 + 0 b240 + 0 b241 + 0 b242 + 0 b243 + 0 b244 + 0 b245 + 0 b246 + 0 b247 + 0 b248 
  + 0 b249 + 0 b250 + 0 b251 + 0 b252 + 0 b253 + 0 b254 + 0 b255 + 0 b256 + 0 b257 + 0 b258 + 0 b259 
  + 0 b260 + 0 b261 + 0 b262 + 0 b263 + 0 b264 + 0 b265 + 0 b266 + 0 b267 + 0 b268 + 0 b269 + 0 b270 
  + 0 b271 + 0 b272 + 0 b273 + 0 b274 + 0 b275 + 0 b276 + 0 b277 + 0 b278 + 0 b279 + 0 b280 + 0 b281 
  + 0 b282 + 0 b283 + 0 b284 + 0 b285 + 0 b286 + 0 b287 + 0 b288 + 0 b289 + 0 b290 + 0 b291 + 0 b292 
  + 0 b293 + 0 b294 + 0 b295 + 0 b296 + 0 b297 + 0 b298 + 0 b299 + 0 b300 + 0 b301 + 0 b302 + 0 b303 
  + 0 b304 + 0 b305 + 0 b306 + 0 b307 + 0 b308 + 0 b309 + 0 b310 + 0 b311 + 0 b312 + 0 b313 + 0 b314 
  + 0 b315 + 0 b316 + 0 b317 + 0 b318 + 0 b319 + 0 b320 + 0 b321 + 0 b322 + 0 b323 + 0 b324 + 0 b325 
  + 0 b326 + 0 b327 + 0 b328 + 0 b329 + 0 b330 + 0 b331 + 0 b332 + 0 b333 + 0 b334 + 0 b335 + 0 b336 
  + 0 b337 + 0 b338 + 0 b339 + 0 b340 + 0 b341 + 0 b342 + 0 b343 + 0 b344 + 0 b345 + 0 b346 + 0 b347 
  + 0 b348 + 0 b349 + 0 b350 + 0 b351 + 0 b352

Subject To
 e2: 0.5 b185 + b186 + b187 + b188 + b189 + b190 + 0.5 b191 + b192 + b193 + b194 + 0.5 b195 + b196 + b197 
  + 0.5 b198 = 1
 e3: 0.5 b199 + b200 + b201 + b202 + b203 + b204 + 0.5 b205 + b206 + b207 + b208 + 0.5 b209 + b210 + b211 
  + 0.5 b212 = 1
 e4: 0.5 b213 + b214 + b215 + b216 + b217 + b218 + 0.5 b219 + b220 + b221 + b222 + 0.5 b223 + b224 + b225 
  + 0.5 b226 = 1
 e5: 0.5 b227 + b228 + b229 + b230 + b231 + b232 + 0.5 b233 + b234 + b235 + b236 + 0.5 b237 + b238 + b239 
  + 0.5 b240 = 1
 e6: 0.5 b241 + b242 + b243 + b244 + b245 + b246 + 0.5 b247 + b248 + b249 + b250 + 0.5 b251 + b252 + b253 
  + 0.5 b254 = 1
 e7: 0.5 b255 + b256 + b257 + b258 + b259 + b260 + 0.5 b261 + b262 + b263 + b264 + 0.5 b265 + b266 + b267 
  + 0.5 b268 = 1
 e8: 0.5 b269 + b270 + b271 + b272 + b273 + b274 + 0.5 b275 + b276 + b277 + b278 + 0.5 b279 + b280 + b281 
  + 0.5 b282 = 1
 e9: 0.5 b283 + b284 + b285 + b286 + b287 + b288 + 0.5 b289 + b290 + b291 + b292 + 0.5 b293 + b294 + b295 
  + 0.5 b296 = 1
 e10: 0.5 b297 + b298 + b299 + b300 + b301 + b302 + 0.5 b303 + b304 + b305 + b306 + 0.5 b307 + b308 + b309 
  + 0.5 b310 = 1
 e11: 0.5 b311 + b312 + b313 + b314 + b315 + b316 + 0.5 b317 + b318 + b319 + b320 + 0.5 b321 + b322 + b323 
  + 0.5 b324 = 1
 e12: 0.5 b325 + b326 + b327 + b328 + b329 + b330 + 0.5 b331 + b332 + b333 + b334 + 0.5 b335 + b336 + b337 
  + 0.5 b338 = 1
 e13: 0.5 b339 + b340 + b341 + b342 + b343 + b344 + 0.5 b345 + b346 + b347 + b348 + 0.5 b349 + b350 + b351 
  + 0.5 b352 = 1
 e14: b185 + b199 + b213 + b227 + b241 + b255 + b269 + b283 + b297 + b311 + b325 + b339 = 1
 e15: b186 + b200 + b214 + b228 + b242 + b256 + b270 + b284 + b298 + b312 + b326 + b340 = 1
 e16: b187 + b201 + b215 + b229 + b243 + b257 + b271 + b285 + b299 + b313 + b327 + b341 = 1
 e17: b188 + b202 + b216 + b230 + b244 + b258 + b272 + b286 + b300 + b314 + b328 + b342 = 1
 e18: b189 + b203 + b217 + b231 + b245 + b259 + b273 + b287 + b301 + b315 + b329 + b343 = 1
 e19: b190 + b204 + b218 + b232 + b246 + b260 + b274 + b288 + b302 + b316 + b330 + b344 = 1
 e20: b191 + b205 + b219 + b233 + b247 + b261 + b275 + b289 + b303 + b317 + b331 + b345 = 1
 e21: b192 + b206 + b220 + b234 + b248 + b262 + b276 + b290 + b304 + b318 + b332 + b346 = 1
 e22: b193 + b207 + b221 + b235 + b249 + b263 + b277 + b291 + b305 + b319 + b333 + b347 = 1
 e23: b194 + b208 + b222 + b236 + b250 + b264 + b278 + b292 + b306 + b320 + b334 + b348 = 1
 e24: b195 + b209 + b223 + b237 + b251 + b265 + b279 + b293 + b307 + b321 + b335 + b349 = 1
 e25: b196 + b210 + b224 + b238 + b252 + b266 + b280 + b294 + b308 + b322 + b336 + b350 = 1
 e26: b197 + b211 + b225 + b239 + b253 + b267 + b281 + b295 + b309 + b323 + b337 + b351 = 1
 e27: b198 + b212 + b226 + b240 + b254 + b268 + b282 + b296 + b310 + b324 + b338 + b352 = 1
 e28: b185 - b191 = 0
 e29: b199 - b205 = 0
 e30: b213 - b219 = 0
 e31: b227 - b233 = 0
 e32: b241 - b247 = 0
 e33: b255 - b261 = 0
 e34: b269 - b275 = 0
 e35: b283 - b289 = 0
 e36: b297 - b303 = 0
 e37: b311 - b317 = 0
 e38: b325 - b331 = 0
 e39: b339 - b345 = 0
 e40: b195 - b198 = 0
 e41: b209 - b212 = 0
 e42: b223 - b226 = 0
 e43: b237 - b240 = 0
 e44: b251 - b254 = 0
 e45: b265 - b268 = 0
 e46: b279 - b282 = 0
 e47: b293 - b296 = 0
 e48: b307 - b310 = 0
 e49: b321 - b324 = 0
 e50: b335 - b338 = 0
 e51: b349 - b352 = 0
 e52: x92 - 1.25 b185 - 1.25 b199 - 1.25 b213 + [ - x176 * b227 - x177 * b241 - x178 * b255 - x179 * b269 
  - x180 * b283 - x181 * b297 - x182 * b311 - x183 * b325 - x184 * b339 ] = 0
 e53: x93 - 1.25 b186 - 1.25 b200 - 1.25 b214 + [ - x176 * b228 - x177 * b242 - x178 * b256 - x179 * b270 
  - x180 * b284 - x181 * b298 - x182 * b312 - x183 * b326 - x184 * b340 ] = 0
 e54: x94 - 1.25 b187 - 1.25 b201 - 1.25 b215 + [ - x176 * b229 - x177 * b243 - x178 * b257 - x179 * b271 
  - x180 * b285 - x181 * b299 - x182 * b313 - x183 * b327 - x184 * b341 ] = 0
 e55: x95 - 1.25 b188 - 1.25 b202 - 1.25 b216 + [ - x176 * b230 - x177 * b244 - x178 * b258 - x179 * b272 
  - x180 * b286 - x181 * b300 - x182 * b314 - x183 * b328 - x184 * b342 ] = 0
 e56: x96 - 1.25 b189 - 1.25 b203 - 1.25 b217 + [ - x176 * b231 - x177 * b245 - x178 * b259 - x179 * b273 
  - x180 * b287 - x181 * b301 - x182 * b315 - x183 * b329 - x184 * b343 ] = 0
 e57: x97 - 1.25 b190 - 1.25 b204 - 1.25 b218 + [ - x176 * b232 - x177 * b246 - x178 * b260 - x179 * b274 
  - x180 * b288 - x181 * b302 - x182 * b316 - x183 * b330 - x184 * b344 ] = 0
 e58: x98 - 1.25 b191 - 1.25 b205 - 1.25 b219 + [ - x176 * b233 - x177 * b247 - x178 * b261 - x179 * b275 
  - x180 * b289 - x181 * b303 - x182 * b317 - x183 * b331 - x184 * b345 ] = 0
 e59: x99 - 1.25 b192 - 1.25 b206 - 1.25 b220 + [ - x176 * b234 - x177 * b248 - x178 * b262 - x179 * b276 
  - x180 * b290 - x181 * b304 - x182 * b318 - x183 * b332 - x184 * b346 ] = 0
 e60: x100 - 1.25 b193 - 1.25 b207 - 1.25 b221 + [ - x176 * b235 - x177 * b249 - x178 * b263 - x179 * b277 
  - x180 * b291 - x181 * b305 - x182 * b319 - x183 * b333 - x184 * b347 ] = 0
 e61: x101 - 1.25 b194 - 1.25 b208 - 1.25 b222 + [ - x176 * b236 - x177 * b250 - x178 * b264 - x179 * b278 
  - x180 * b292 - x181 * b306 - x182 * b320 - x183 * b334 - x184 * b348 ] = 0
 e62: x102 - 1.25 b195 - 1.25 b209 - 1.25 b223 + [ - x176 * b237 - x177 * b251 - x178 * b265 - x179 * b279 
  - x180 * b293 - x181 * b307 - x182 * b321 - x183 * b335 - x184 * b349 ] = 0
 e63: x103 - 1.25 b196 - 1.25 b210 - 1.25 b224 + [ - x176 * b238 - x177 * b252 - x178 * b266 - x179 * b280 
  - x180 * b294 - x181 * b308 - x182 * b322 - x183 * b336 - x184 * b350 ] = 0
 e64: x104 - 1.25 b197 - 1.25 b211 - 1.25 b225 + [ - x176 * b239 - x177 * b253 - x178 * b267 - x179 * b281 
  - x180 * b295 - x181 * b309 - x182 * b323 - x183 * b337 - x184 * b351 ] = 0
 e65: x105 - 1.25 b198 - 1.25 b212 - 1.25 b226 + [ - x176 * b240 - x177 * b254 - x178 * b268 - x179 * b282 
  - x180 * b296 - x181 * b310 - x182 * b324 - x183 * b338 - x184 * b352 ] = 0
 e66: - x92 + x106 + [ 0.15288 x2 * x92 ] = 0
 e67: - x106 + x107 + [ 0.15288 x3 * x106 ] = 0
 e68: - x107 + x108 + [ 0.15288 x4 * x107 ] = 0
 e69: - x108 + x109 + [ 0.15288 x5 * x108 ] = 0
 e70: - x109 + x110 + [ 0.15288 x6 * x109 ] = 0
 e71: - x93 + x111 + [ 0.15288 x8 * x93 ] = 0
 e72: - x111 + x112 + [ 0.15288 x9 * x111 ] = 0
 e73: - x112 + x113 + [ 0.15288 x10 * x112 ] = 0
 e74: - x113 + x114 + [ 0.15288 x11 * x113 ] = 0
 e75: - x114 + x115 + [ 0.15288 x12 * x114 ] = 0
 e76: - x94 + x116 + [ 0.15288 x14 * x94 ] = 0
 e77: - x116 + x117 + [ 0.15288 x15 * x116 ] = 0
 e78: - x117 + x118 + [ 0.15288 x16 * x117 ] = 0
 e79: - x118 + x119 + [ 0.15288 x17 * x118 ] = 0
 e80: - x119 + x120 + [ 0.15288 x18 * x119 ] = 0
 e81: - x95 + x121 + [ 0.15288 x20 * x95 ] = 0
 e82: - x121 + x122 + [ 0.15288 x21 * x121 ] = 0
 e83: - x122 + x123 + [ 0.15288 x22 * x122 ] = 0
 e84: - x123 + x124 + [ 0.15288 x23 * x123 ] = 0
 e85: - x124 + x125 + [ 0.15288 x24 * x124 ] = 0
 e86: - x96 + x126 + [ 0.15288 x26 * x96 ] = 0
 e87: - x126 + x127 + [ 0.15288 x27 * x126 ] = 0
 e88: - x127 + x128 + [ 0.15288 x28 * x127 ] = 0
 e89: - x128 + x129 + [ 0.15288 x29 * x128 ] = 0
 e90: - x129 + x130 + [ 0.15288 x30 * x129 ] = 0
 e91: - x97 + x131 + [ 0.15288 x32 * x97 ] = 0
 e92: - x131 + x132 + [ 0.15288 x33 * x131 ] = 0
 e93: - x132 + x133 + [ 0.15288 x34 * x132 ] = 0
 e94: - x133 + x134 + [ 0.15288 x35 * x133 ] = 0
 e95: - x134 + x135 + [ 0.15288 x36 * x134 ] = 0
 e96: - x98 + x136 + [ 0.15288 x38 * x98 ] = 0
 e97: - x136 + x137 + [ 0.15288 x39 * x136 ] = 0
 e98: - x137 + x138 + [ 0.15288 x40 * x137 ] = 0
 e99: - x138 + x139 + [ 0.15288 x41 * x138 ] = 0
 e100: - x139 + x140 + [ 0.15288 x42 * x139 ] = 0
 e101: - x99 + x141 + [ 0.15288 x44 * x99 ] = 0
 e102: - x141 + x142 + [ 0.15288 x45 * x141 ] = 0
 e103: - x142 + x143 + [ 0.15288 x46 * x142 ] = 0
 e104: - x143 + x144 + [ 0.15288 x47 * x143 ] = 0
 e105: - x144 + x145 + [ 0.15288 x48 * x144 ] = 0
 e106: - x100 + x146 + [ 0.15288 x50 * x100 ] = 0
 e107: - x146 + x147 + [ 0.15288 x51 * x146 ] = 0
 e108: - x147 + x148 + [ 0.15288 x52 * x147 ] = 0
 e109: - x148 + x149 + [ 0.15288 x53 * x148 ] = 0
 e110: - x149 + x150 + [ 0.15288 x54 * x149 ] = 0
 e111: - x101 + x151 + [ 0.15288 x56 * x101 ] = 0
 e112: - x151 + x152 + [ 0.15288 x57 * x151 ] = 0
 e113: - x152 + x153 + [ 0.15288 x58 * x152 ] = 0
 e114: - x153 + x154 + [ 0.15288 x59 * x153 ] = 0
 e115: - x154 + x155 + [ 0.15288 x60 * x154 ] = 0
 e116: - x102 + x156 + [ 0.15288 x62 * x102 ] = 0
 e117: - x156 + x157 + [ 0.15288 x63 * x156 ] = 0
 e118: - x157 + x158 + [ 0.15288 x64 * x157 ] = 0
 e119: - x158 + x159 + [ 0.15288 x65 * x158 ] = 0
 e120: - x159 + x160 + [ 0.15288 x66 * x159 ] = 0
 e121: - x103 + x161 + [ 0.15288 x68 * x103 ] = 0
 e122: - x161 + x162 + [ 0.15288 x69 * x161 ] = 0
 e123: - x162 + x163 + [ 0.15288 x70 * x162 ] = 0
 e124: - x163 + x164 + [ 0.15288 x71 * x163 ] = 0
 e125: - x164 + x165 + [ 0.15288 x72 * x164 ] = 0
 e126: - x104 + x166 + [ 0.15288 x74 * x104 ] = 0
 e127: - x166 + x167 + [ 0.15288 x75 * x166 ] = 0
 e128: - x167 + x168 + [ 0.15288 x76 * x167 ] = 0
 e129: - x168 + x169 + [ 0.15288 x77 * x168 ] = 0
 e130: - x169 + x170 + [ 0.15288 x78 * x169 ] = 0
 e131: - x105 + x171 + [ 0.15288 x80 * x105 ] = 0
 e132: - x171 + x172 + [ 0.15288 x81 * x171 ] = 0
 e133: - x172 + x173 + [ 0.15288 x82 * x172 ] = 0
 e134: - x173 + x174 + [ 0.15288 x83 * x173 ] = 0
 e135: - x174 + x175 + [ 0.15288 x84 * x174 ] = 0
 e136: x176 + [ - 0.5 x110 * b185 - x115 * b186 - x120 * b187 - x125 * b188 - x130 * b189 - x135 * b190 
  - 0.5 x140 * b191 - x145 * b192 - x150 * b193 - x155 * b194 - 0.5 x160 * b195 - x165 * b196 - x170 * b197 
  - 0.5 x175 * b198 ] = 0
 e137: x177 + [ - 0.5 x110 * b199 - x115 * b200 - x120 * b201 - x125 * b202 - x130 * b203 - x135 * b204 
  - 0.5 x140 * b205 - x145 * b206 - x150 * b207 - x155 * b208 - 0.5 x160 * b209 - x165 * b210 - x170 * b211 
  - 0.5 x175 * b212 ] = 0
 e138: x178 + [ - 0.5 x110 * b213 - x115 * b214 - x120 * b215 - x125 * b216 - x130 * b217 - x135 * b218 
  - 0.5 x140 * b219 - x145 * b220 - x150 * b221 - x155 * b222 - 0.5 x160 * b223 - x165 * b224 - x170 * b225 
  - 0.5 x175 * b226 ] = 0
 e139: x179 + [ - 0.5 x110 * b227 - x115 * b228 - x120 * b229 - x125 * b230 - x130 * b231 - x135 * b232 
  - 0.5 x140 * b233 - x145 * b234 - x150 * b235 - x155 * b236 - 0.5 x160 * b237 - x165 * b238 - x170 * b239 
  - 0.5 x175 * b240 ] = 0
 e140: x180 + [ - 0.5 x110 * b241 - x115 * b242 - x120 * b243 - x125 * b244 - x130 * b245 - x135 * b246 
  - 0.5 x140 * b247 - x145 * b248 - x150 * b249 - x155 * b250 - 0.5 x160 * b251 - x165 * b252 - x170 * b253 
  - 0.5 x175 * b254 ] = 0
 e141: x181 + [ - 0.5 x110 * b255 - x115 * b256 - x120 * b257 - x125 * b258 - x130 * b259 - x135 * b260 
  - 0.5 x140 * b261 - x145 * b262 - x150 * b263 - x155 * b264 - 0.5 x160 * b265 - x165 * b266 - x170 * b267 
  - 0.5 x175 * b268 ] = 0
 e142: x182 + [ - 0.5 x110 * b269 - x115 * b270 - x120 * b271 - x125 * b272 - x130 * b273 - x135 * b274 
  - 0.5 x140 * b275 - x145 * b276 - x150 * b277 - x155 * b278 - 0.5 x160 * b279 - x165 * b280 - x170 * b281 
  - 0.5 x175 * b282 ] = 0
 e143: x183 + [ - 0.5 x110 * b283 - x115 * b284 - x120 * b285 - x125 * b286 - x130 * b287 - x135 * b288 
  - 0.5 x140 * b289 - x145 * b290 - x150 * b291 - x155 * b292 - 0.5 x160 * b293 - x165 * b294 - x170 * b295 
  - 0.5 x175 * b296 ] = 0
 e144: x184 + [ - 0.5 x110 * b297 - x115 * b298 - x120 * b299 - x125 * b300 - x130 * b301 - x135 * b302 
  - 0.5 x140 * b303 - x145 * b304 - x150 * b305 - x155 * b306 - 0.5 x160 * b307 - x165 * b308 - x170 * b309 
  - 0.5 x175 * b310 ] = 0
 e145: [ 0.5 x2 * x92 + x8 * x93 + x14 * x94 + x20 * x95 + x26 * x96 + x32 * x97 + 0.5 x38 * x98 + x44 * x99 
  + x50 * x100 + x56 * x101 + 0.5 x62 * x102 + x68 * x103 + x74 * x104 + 0.5 x80 * x105 ] = 1
 e146: [ 0.5 x3 * x106 + x9 * x111 + x15 * x116 + x21 * x121 + x27 * x126 + x33 * x131 + 0.5 x39 * x136 
  + x45 * x141 + x51 * x146 + x57 * x151 + 0.5 x63 * x156 + x69 * x161 + x75 * x166 + 0.5 x81 * x171 
  ] = 1
 e147: [ 0.5 x4 * x107 + x10 * x112 + x16 * x117 + x22 * x122 + x28 * x127 + x34 * x132 + 0.5 x40 * x137 
  + x46 * x142 + x52 * x147 + x58 * x152 + 0.5 x64 * x157 + x70 * x162 + x76 * x167 + 0.5 x82 * x172 
  ] = 1
 e148: [ 0.5 x5 * x108 + x11 * x113 + x17 * x118 + x23 * x123 + x29 * x128 + x35 * x133 + 0.5 x41 * x138 
  + x47 * x143 + x53 * x148 + x59 * x153 + 0.5 x65 * x158 + x71 * x163 + x77 * x168 + 0.5 x83 * x173 
  ] = 1
 e149: [ 0.5 x6 * x109 + x12 * x114 + x18 * x119 + x24 * x124 + x30 * x129 + x36 * x134 + 0.5 x42 * x139 
  + x48 * x144 + x54 * x149 + x60 * x154 + 0.5 x66 * x159 + x72 * x164 + x78 * x169 + 0.5 x84 * x174 
  ] = 1
 e150: [ 0.5 x7 * x110 + x13 * x115 + x19 * x120 + x25 * x125 + x31 * x130 + x37 * x135 + 0.5 x43 * x140 
  + x49 * x145 + x55 * x150 + x61 * x155 + 0.5 x67 * x160 + x73 * x165 + x79 * x170 + 0.5 x85 * x175 
  ] = 1
 e151: [ x2 * x92 ] <= 0.15
 e152: [ x3 * x106 ] <= 0.15
 e153: [ x4 * x107 ] <= 0.15
 e154: [ x5 * x108 ] <= 0.15
 e155: [ x6 * x109 ] <= 0.15
 e156: [ x7 * x110 ] <= 0.15
 e157: [ x8 * x93 ] <= 0.15
 e158: [ x9 * x111 ] <= 0.15
 e159: [ x10 * x112 ] <= 0.15
 e160: [ x11 * x113 ] <= 0.15
 e161: [ x12 * x114 ] <= 0.15
 e162: [ x13 * x115 ] <= 0.15
 e163: [ x14 * x94 ] <= 0.15
 e164: [ x15 * x116 ] <= 0.15
 e165: [ x16 * x117 ] <= 0.15
 e166: [ x17 * x118 ] <= 0.15
 e167: [ x18 * x119 ] <= 0.15
 e168: [ x19 * x120 ] <= 0.15
 e169: [ x20 * x95 ] <= 0.15
 e170: [ x21 * x121 ] <= 0.15
 e171: [ x22 * x122 ] <= 0.15
 e172: [ x23 * x123 ] <= 0.15
 e173: [ x24 * x124 ] <= 0.15
 e174: [ x25 * x125 ] <= 0.15
 e175: [ x26 * x96 ] <= 0.15
 e176: [ x27 * x126 ] <= 0.15
 e177: [ x28 * x127 ] <= 0.15
 e178: [ x29 * x128 ] <= 0.15
 e179: [ x30 * x129 ] <= 0.15
 e180: [ x31 * x130 ] <= 0.15
 e181: [ x32 * x97 ] <= 0.15
 e182: [ x33 * x131 ] <= 0.15
 e183: [ x34 * x132 ] <= 0.15
 e184: [ x35 * x133 ] <= 0.15
 e185: [ x36 * x134 ] <= 0.15
 e186: [ x37 * x135 ] <= 0.15
 e187: [ x38 * x98 ] <= 0.15
 e188: [ x39 * x136 ] <= 0.15
 e189: [ x40 * x137 ] <= 0.15
 e190: [ x41 * x138 ] <= 0.15
 e191: [ x42 * x139 ] <= 0.15
 e192: [ x43 * x140 ] <= 0.15
 e193: [ x44 * x99 ] <= 0.15
 e194: [ x45 * x141 ] <= 0.15
 e195: [ x46 * x142 ] <= 0.15
 e196: [ x47 * x143 ] <= 0.15
 e197: [ x48 * x144 ] <= 0.15
 e198: [ x49 * x145 ] <= 0.15
 e199: [ x50 * x100 ] <= 0.15
 e200: [ x51 * x146 ] <= 0.15
 e201: [ x52 * x147 ] <= 0.15
 e202: [ x53 * x148 ] <= 0.15
 e203: [ x54 * x149 ] <= 0.15
 e204: [ x55 * x150 ] <= 0.15
 e205: [ x56 * x101 ] <= 0.15
 e206: [ x57 * x151 ] <= 0.15
 e207: [ x58 * x152 ] <= 0.15
 e208: [ x59 * x153 ] <= 0.15
 e209: [ x60 * x154 ] <= 0.15
 e210: [ x61 * x155 ] <= 0.15
 e211: [ x62 * x102 ] <= 0.15
 e212: [ x63 * x156 ] <= 0.15
 e213: [ x64 * x157 ] <= 0.15
 e214: [ x65 * x158 ] <= 0.15
 e215: [ x66 * x159 ] <= 0.15
 e216: [ x67 * x160 ] <= 0.15
 e217: [ x68 * x103 ] <= 0.15
 e218: [ x69 * x161 ] <= 0.15
 e219: [ x70 * x162 ] <= 0.15
 e220: [ x71 * x163 ] <= 0.15
 e221: [ x72 * x164 ] <= 0.15
 e222: [ x73 * x165 ] <= 0.15
 e223: [ x74 * x104 ] <= 0.15
 e224: [ x75 * x166 ] <= 0.15
 e225: [ x76 * x167 ] <= 0.15
 e226: [ x77 * x168 ] <= 0.15
 e227: [ x78 * x169 ] <= 0.15
 e228: [ x79 * x170 ] <= 0.15
 e229: [ x80 * x105 ] <= 0.15
 e230: [ x81 * x171 ] <= 0.15
 e231: [ x82 * x172 ] <= 0.15
 e232: [ x83 * x173 ] <= 0.15
 e233: [ x84 * x174 ] <= 0.15
 e234: [ x85 * x175 ] <= 0.15
 e235: [ - x2 * x86 + 0.705 x2 * x92 + 0.25 x8 * x93 ] = 0
 e236: [ - x3 * x87 + 0.705 x3 * x106 + 0.25 x9 * x111 ] = 0
 e237: [ - x4 * x88 + 0.705 x4 * x107 + 0.25 x10 * x112 ] = 0
 e238: [ - x5 * x89 + 0.705 x5 * x108 + 0.25 x11 * x113 ] = 0
 e239: [ - x6 * x90 + 0.705 x6 * x109 + 0.25 x12 * x114 ] = 0
 e240: [ - x7 * x91 + 0.705 x7 * x110 + 0.25 x13 * x115 ] = 0
 e241: [ 0.125 x2 * x92 - x8 * x86 + 0.625 x8 * x93 + 0.125 x14 * x94 + 0.08 x38 * x98 + 0.045 x44 * x99 
  ] = 0
 e242: [ 0.125 x3 * x106 - x9 * x87 + 0.625 x9 * x111 + 0.125 x15 * x116 + 0.08 x39 * x136 + 0.045 x45 * x141 
  ] = 0
 e243: [ 0.125 x4 * x107 - x10 * x88 + 0.625 x10 * x112 + 0.125 x16 * x117 + 0.08 x40 * x137 + 0.045 x46 * x142 
  ] = 0
 e244: [ 0.125 x5 * x108 - x11 * x89 + 0.625 x11 * x113 + 0.125 x17 * x118 + 0.08 x41 * x138 + 0.045 x47 * x143 
  ] = 0
 e245: [ 0.125 x6 * x109 - x12 * x90 + 0.625 x12 * x114 + 0.125 x18 * x119 + 0.08 x42 * x139 + 0.045 x48 * x144 
  ] = 0
 e246: [ 0.125 x7 * x110 - x13 * x91 + 0.625 x13 * x115 + 0.125 x19 * x120 + 0.08 x43 * x140 + 0.045 x49 * x145 
  ] = 0
 e247: [ 0.125 x8 * x93 - x14 * x86 + 0.58 x14 * x94 + 0.125 x20 * x95 + 0.045 x38 * x98 + 0.08 x44 * x99 
  + 0.045 x50 * x100 ] = 0
 e248: [ 0.125 x9 * x111 - x15 * x87 + 0.58 x15 * x116 + 0.125 x21 * x121 + 0.045 x39 * x136 + 0.08 x45 * x141 
  + 0.045 x51 * x146 ] = 0
 e249: [ 0.125 x10 * x112 - x16 * x88 + 0.58 x16 * x117 + 0.125 x22 * x122 + 0.045 x40 * x137 + 0.08 x46 * x142 
  + 0.045 x52 * x147 ] = 0
 e250: [ 0.125 x11 * x113 - x17 * x89 + 0.58 x17 * x118 + 0.125 x23 * x123 + 0.045 x41 * x138 + 0.08 x47 * x143 
  + 0.045 x53 * x148 ] = 0
 e251: [ 0.125 x12 * x114 - x18 * x90 + 0.58 x18 * x119 + 0.125 x24 * x124 + 0.045 x42 * x139 + 0.08 x48 * x144 
  + 0.045 x54 * x149 ] = 0
 e252: [ 0.125 x13 * x115 - x19 * x91 + 0.58 x19 * x120 + 0.125 x25 * x125 + 0.045 x43 * x140 + 0.08 x49 * x145 
  + 0.045 x55 * x150 ] = 0
 e253: [ 0.125 x14 * x94 - x20 * x86 + 0.58 x20 * x95 + 0.125 x26 * x96 + 0.045 x44 * x99 + 0.08 x50 * x100 
  + 0.045 x56 * x101 ] = 0
 e254: [ 0.125 x15 * x116 - x21 * x87 + 0.58 x21 * x121 + 0.125 x27 * x126 + 0.045 x45 * x141 + 0.08 x51 * x146 
  + 0.045 x57 * x151 ] = 0
 e255: [ 0.125 x16 * x117 - x22 * x88 + 0.58 x22 * x122 + 0.125 x28 * x127 + 0.045 x46 * x142 + 0.08 x52 * x147 
  + 0.045 x58 * x152 ] = 0
 e256: [ 0.125 x17 * x118 - x23 * x89 + 0.58 x23 * x123 + 0.125 x29 * x128 + 0.045 x47 * x143 + 0.08 x53 * x148 
  + 0.045 x59 * x153 ] = 0
 e257: [ 0.125 x18 * x119 - x24 * x90 + 0.58 x24 * x124 + 0.125 x30 * x129 + 0.045 x48 * x144 + 0.08 x54 * x149 
  + 0.045 x60 * x154 ] = 0
 e258: [ 0.125 x19 * x120 - x25 * x91 + 0.58 x25 * x125 + 0.125 x31 * x130 + 0.045 x49 * x145 + 0.08 x55 * x150 
  + 0.045 x61 * x155 ] = 0
 e259: [ 0.125 x20 * x95 - x26 * x86 + 0.58 x26 * x96 + 0.125 x32 * x97 + 0.045 x50 * x100 + 0.08 x56 * x101 
  ] = 0
 e260: [ 0.125 x21 * x121 - x27 * x87 + 0.58 x27 * x126 + 0.125 x33 * x131 + 0.045 x51 * x146 + 0.08 x57 * x151 
  ] = 0
 e261: [ 0.125 x22 * x122 - x28 * x88 + 0.58 x28 * x127 + 0.125 x34 * x132 + 0.045 x52 * x147 + 0.08 x58 * x152 
  ] = 0
 e262: [ 0.125 x23 * x123 - x29 * x89 + 0.58 x29 * x128 + 0.125 x35 * x133 + 0.045 x53 * x148 + 0.08 x59 * x153 
  ] = 0
 e263: [ 0.125 x24 * x124 - x30 * x90 + 0.58 x30 * x129 + 0.125 x36 * x134 + 0.045 x54 * x149 + 0.08 x60 * x154 
  ] = 0
 e264: [ 0.125 x25 * x125 - x31 * x91 + 0.58 x31 * x130 + 0.125 x37 * x135 + 0.045 x55 * x150 + 0.08 x61 * x155 
  ] = 0
 e265: [ 0.125 x26 * x96 - x32 * x86 + 0.58 x32 * x97 + 0.045 x56 * x101 ] = 0
 e266: [ 0.125 x27 * x126 - x33 * x87 + 0.58 x33 * x131 + 0.045 x57 * x151 ] = 0
 e267: [ 0.125 x28 * x127 - x34 * x88 + 0.58 x34 * x132 + 0.045 x58 * x152 ] = 0
 e268: [ 0.125 x29 * x128 - x35 * x89 + 0.58 x35 * x133 + 0.045 x59 * x153 ] = 0
 e269: [ 0.125 x30 * x129 - x36 * x90 + 0.58 x36 * x134 + 0.045 x60 * x154 ] = 0
 e270: [ 0.125 x31 * x130 - x37 * x91 + 0.58 x37 * x135 + 0.045 x61 * x155 ] = 0
 e271: [ 0.045 x2 * x92 + 0.16 x8 * x93 - x38 * x86 + 0.5 x38 * x98 + 0.16 x44 * x99 + 0.045 x62 * x102 
  ] = 0
 e272: [ 0.045 x3 * x106 + 0.16 x9 * x111 - x39 * x87 + 0.5 x39 * x136 + 0.16 x45 * x141 + 0.045 x63 * x156 
  ] = 0
 e273: [ 0.045 x4 * x107 + 0.16 x10 * x112 - x40 * x88 + 0.5 x40 * x137 + 0.16 x46 * x142 + 0.045 x64 * x157 
  ] = 0
 e274: [ 0.045 x5 * x108 + 0.16 x11 * x113 - x41 * x89 + 0.5 x41 * x138 + 0.16 x47 * x143 + 0.045 x65 * x158 
  ] = 0
 e275: [ 0.045 x6 * x109 + 0.16 x12 * x114 - x42 * x90 + 0.5 x42 * x139 + 0.16 x48 * x144 + 0.045 x66 * x159 
  ] = 0
 e276: [ 0.045 x7 * x110 + 0.16 x13 * x115 - x43 * x91 + 0.5 x43 * x140 + 0.16 x49 * x145 + 0.045 x67 * x160 
  ] = 0
 e277: [ 0.045 x8 * x93 + 0.08 x14 * x94 + 0.045 x20 * x95 + 0.08 x38 * x98 - x44 * x86 + 0.545 x44 * x99 
  + 0.08 x50 * x100 + 0.08 x62 * x102 + 0.045 x68 * x103 ] = 0
 e278: [ 0.045 x9 * x111 + 0.08 x15 * x116 + 0.045 x21 * x121 + 0.08 x39 * x136 - x45 * x87 + 0.545 x45 * x141 
  + 0.08 x51 * x146 + 0.08 x63 * x156 + 0.045 x69 * x161 ] = 0
 e279: [ 0.045 x10 * x112 + 0.08 x16 * x117 + 0.045 x22 * x122 + 0.08 x40 * x137 - x46 * x88 + 0.545 x46 * x142 
  + 0.08 x52 * x147 + 0.08 x64 * x157 + 0.045 x70 * x162 ] = 0
 e280: [ 0.045 x11 * x113 + 0.08 x17 * x118 + 0.045 x23 * x123 + 0.08 x41 * x138 - x47 * x89 + 0.545 x47 * x143 
  + 0.08 x53 * x148 + 0.08 x65 * x158 + 0.045 x71 * x163 ] = 0
 e281: [ 0.045 x12 * x114 + 0.08 x18 * x119 + 0.045 x24 * x124 + 0.08 x42 * x139 - x48 * x90 + 0.545 x48 * x144 
  + 0.08 x54 * x149 + 0.08 x66 * x159 + 0.045 x72 * x164 ] = 0
 e282: [ 0.045 x13 * x115 + 0.08 x19 * x120 + 0.045 x25 * x125 + 0.08 x43 * x140 - x49 * x91 + 0.545 x49 * x145 
  + 0.08 x55 * x150 + 0.08 x67 * x160 + 0.045 x73 * x165 ] = 0
 e283: [ 0.045 x14 * x94 + 0.08 x20 * x95 + 0.045 x26 * x96 + 0.08 x44 * x99 - x50 * x86 + 0.5 x50 * x100 
  + 0.08 x56 * x101 + 0.045 x62 * x102 + 0.08 x68 * x103 + 0.045 x74 * x104 ] = 0
 e284: [ 0.045 x15 * x116 + 0.08 x21 * x121 + 0.045 x27 * x126 + 0.08 x45 * x141 - x51 * x87 + 0.5 x51 * x146 
  + 0.08 x57 * x151 + 0.045 x63 * x156 + 0.08 x69 * x161 + 0.045 x75 * x166 ] = 0
 e285: [ 0.045 x16 * x117 + 0.08 x22 * x122 + 0.045 x28 * x127 + 0.08 x46 * x142 - x52 * x88 + 0.5 x52 * x147 
  + 0.08 x58 * x152 + 0.045 x64 * x157 + 0.08 x70 * x162 + 0.045 x76 * x167 ] = 0
 e286: [ 0.045 x17 * x118 + 0.08 x23 * x123 + 0.045 x29 * x128 + 0.08 x47 * x143 - x53 * x89 + 0.5 x53 * x148 
  + 0.08 x59 * x153 + 0.045 x65 * x158 + 0.08 x71 * x163 + 0.045 x77 * x168 ] = 0
 e287: [ 0.045 x18 * x119 + 0.08 x24 * x124 + 0.045 x30 * x129 + 0.08 x48 * x144 - x54 * x90 + 0.5 x54 * x149 
  + 0.08 x60 * x154 + 0.045 x66 * x159 + 0.08 x72 * x164 + 0.045 x78 * x169 ] = 0
 e288: [ 0.045 x19 * x120 + 0.08 x25 * x125 + 0.045 x31 * x130 + 0.08 x49 * x145 - x55 * x91 + 0.5 x55 * x150 
  + 0.08 x61 * x155 + 0.045 x67 * x160 + 0.08 x73 * x165 + 0.045 x79 * x170 ] = 0
 e289: [ 0.045 x20 * x95 + 0.08 x26 * x96 + 0.045 x32 * x97 + 0.08 x50 * x100 - x56 * x86 + 0.5 x56 * x101 
  + 0.045 x68 * x103 + 0.08 x74 * x104 ] = 0
 e290: [ 0.045 x21 * x121 + 0.08 x27 * x126 + 0.045 x33 * x131 + 0.08 x51 * x146 - x57 * x87 + 0.5 x57 * x151 
  + 0.045 x69 * x161 + 0.08 x75 * x166 ] = 0
 e291: [ 0.045 x22 * x122 + 0.08 x28 * x127 + 0.045 x34 * x132 + 0.08 x52 * x147 - x58 * x88 + 0.5 x58 * x152 
  + 0.045 x70 * x162 + 0.08 x76 * x167 ] = 0
 e292: [ 0.045 x23 * x123 + 0.08 x29 * x128 + 0.045 x35 * x133 + 0.08 x53 * x148 - x59 * x89 + 0.5 x59 * x153 
  + 0.045 x71 * x163 + 0.08 x77 * x168 ] = 0
 e293: [ 0.045 x24 * x124 + 0.08 x30 * x129 + 0.045 x36 * x134 + 0.08 x54 * x149 - x60 * x90 + 0.5 x60 * x154 
  + 0.045 x72 * x164 + 0.08 x78 * x169 ] = 0
 e294: [ 0.045 x25 * x125 + 0.08 x31 * x130 + 0.045 x37 * x135 + 0.08 x55 * x150 - x61 * x91 + 0.5 x61 * x155 
  + 0.045 x73 * x165 + 0.08 x79 * x170 ] = 0
 e295: [ 0.045 x38 * x98 + 0.125 x44 * x99 + 0.045 x50 * x100 - x62 * x86 + 0.5 x62 * x102 + 0.16 x68 * x103 
  + 0.045 x80 * x105 ] = 0
 e296: [ 0.045 x39 * x136 + 0.125 x45 * x141 + 0.045 x51 * x146 - x63 * x87 + 0.5 x63 * x156 + 0.16 x69 * x161 
  + 0.045 x81 * x171 ] = 0
 e297: [ 0.045 x40 * x137 + 0.125 x46 * x142 + 0.045 x52 * x147 - x64 * x88 + 0.5 x64 * x157 + 0.16 x70 * x162 
  + 0.045 x82 * x172 ] = 0
 e298: [ 0.045 x41 * x138 + 0.125 x47 * x143 + 0.045 x53 * x148 - x65 * x89 + 0.5 x65 * x158 + 0.16 x71 * x163 
  + 0.045 x83 * x173 ] = 0
 e299: [ 0.045 x42 * x139 + 0.125 x48 * x144 + 0.045 x54 * x149 - x66 * x90 + 0.5 x66 * x159 + 0.16 x72 * x164 
  + 0.045 x84 * x174 ] = 0
 e300: [ 0.045 x43 * x140 + 0.125 x49 * x145 + 0.045 x55 * x150 - x67 * x91 + 0.5 x67 * x160 + 0.16 x73 * x165 
  + 0.045 x85 * x175 ] = 0
 e301: [ 0.045 x44 * x99 + 0.08 x50 * x100 + 0.045 x56 * x101 + 0.08 x62 * x102 - x68 * x86 + 0.545 x68 * x103 
  + 0.08 x74 * x104 + 0.08 x80 * x105 ] = 0
 e302: [ 0.045 x45 * x141 + 0.08 x51 * x146 + 0.045 x57 * x151 + 0.08 x63 * x156 - x69 * x87 + 0.545 x69 * x161 
  + 0.08 x75 * x166 + 0.08 x81 * x171 ] = 0
 e303: [ 0.045 x46 * x142 + 0.08 x52 * x147 + 0.045 x58 * x152 + 0.08 x64 * x157 - x70 * x88 + 0.545 x70 * x162 
  + 0.08 x76 * x167 + 0.08 x82 * x172 ] = 0
 e304: [ 0.045 x47 * x143 + 0.08 x53 * x148 + 0.045 x59 * x153 + 0.08 x65 * x158 - x71 * x89 + 0.545 x71 * x163 
  + 0.08 x77 * x168 + 0.08 x83 * x173 ] = 0
 e305: [ 0.045 x48 * x144 + 0.08 x54 * x149 + 0.045 x60 * x154 + 0.08 x66 * x159 - x72 * x90 + 0.545 x72 * x164 
  + 0.08 x78 * x169 + 0.08 x84 * x174 ] = 0
 e306: [ 0.045 x49 * x145 + 0.08 x55 * x150 + 0.045 x61 * x155 + 0.08 x67 * x160 - x73 * x91 + 0.545 x73 * x165 
  + 0.08 x79 * x170 + 0.08 x85 * x175 ] = 0
 e307: [ 0.045 x50 * x100 + 0.08 x56 * x101 + 0.08 x68 * x103 - x74 * x86 + 0.5 x74 * x104 + 0.045 x80 * x105 
  ] = 0
 e308: [ 0.045 x51 * x146 + 0.08 x57 * x151 + 0.08 x69 * x161 - x75 * x87 + 0.5 x75 * x166 + 0.045 x81 * x171 
  ] = 0
 e309: [ 0.045 x52 * x147 + 0.08 x58 * x152 + 0.08 x70 * x162 - x76 * x88 + 0.5 x76 * x167 + 0.045 x82 * x172 
  ] = 0
 e310: [ 0.045 x53 * x148 + 0.08 x59 * x153 + 0.08 x71 * x163 - x77 * x89 + 0.5 x77 * x168 + 0.045 x83 * x173 
  ] = 0
 e311: [ 0.045 x54 * x149 + 0.08 x60 * x154 + 0.08 x72 * x164 - x78 * x90 + 0.5 x78 * x169 + 0.045 x84 * x174 
  ] = 0
 e312: [ 0.045 x55 * x150 + 0.08 x61 * x155 + 0.08 x73 * x165 - x79 * x91 + 0.5 x79 * x170 + 0.045 x85 * x175 
  ] = 0
 e313: [ 0.045 x62 * x102 + 0.125 x68 * x103 - x80 * x86 + 0.5 x80 * x105 ] = 0
 e314: [ 0.045 x63 * x156 + 0.125 x69 * x161 - x81 * x87 + 0.5 x81 * x171 ] = 0
 e315: [ 0.045 x64 * x157 + 0.125 x70 * x162 - x82 * x88 + 0.5 x82 * x172 ] = 0
 e316: [ 0.045 x65 * x158 + 0.125 x71 * x163 - x83 * x89 + 0.5 x83 * x173 ] = 0
 e317: [ 0.045 x66 * x159 + 0.125 x72 * x164 - x84 * x90 + 0.5 x84 * x174 ] = 0
 e318: [ 0.045 x67 * x160 + 0.125 x73 * x165 - x85 * x91 + 0.5 x85 * x175 ] = 0

Bounds
 x176 Free
 x177 Free
 x178 Free
 x179 Free
 x180 Free
 x181 Free
 x182 Free
 x183 Free
 x184 Free

Binary
 b185 b186 b187 b188 b189 b190 b191 b192 b193 b194 b195 b196 b197 b198 b199 b200 b201 b202 b203
 b204 b205 b206 b207 b208 b209 b210 b211 b212 b213 b214 b215 b216 b217 b218 b219 b220 b221 b222
 b223 b224 b225 b226 b227 b228 b229 b230 b231 b232 b233 b234 b235 b236 b237 b238 b239 b240 b241
 b242 b243 b244 b245 b246 b247 b248 b249 b250 b251 b252 b253 b254 b255 b256 b257 b258 b259 b260
 b261 b262 b263 b264 b265 b266 b267 b268 b269 b270 b271 b272 b273 b274 b275 b276 b277 b278 b279
 b280 b281 b282 b283 b284 b285 b286 b287 b288 b289 b290 b291 b292 b293 b294 b295 b296 b297 b298
 b299 b300 b301 b302 b303 b304 b305 b306 b307 b308 b309 b310 b311 b312 b313 b314 b315 b316 b317
 b318 b319 b320 b321 b322 b323 b324 b325 b326 b327 b328 b329 b330 b331 b332 b333 b334 b335 b336
 b337 b338 b339 b340 b341 b342 b343 b344 b345 b346 b347 b348 b349 b350 b351 b352

End
