\ Equation counts
\     Total        E        G        L        N        X        C        B
\       117       27       36       54        0        0        0        0
\ 
\ Variable counts
\                  x        b        i      s1s      s2s       sc       si
\     Total     cont   binary  integer     sos1     sos2    scont     sint
\       171      171        0        0        0        0        0        0
\ 
\ Nonzero counts
\     Total    const       NL      DLL
\      1732      985      747        0
\ 
Minimize
 obj: 158 x2 - 221.2 x3 + 189.6 x4 + 31.6 x5 - 442.4 x6 - 347.6 x7 - 347.6 x8 - 189.6 x9 - 410.8 x10 
  + 63.2 x11 + 474 x12 + 94.8 x13 + 252.8 x14 + 505.6 x15 - 442.4 x16 + 63.2 x17 + 252.8 x18 + 252.8 x19 
  - 221.2 x20 - 126.4 x21 + 252.8 x22 - 126.4 x23 + 31.6 x24 - 189.6 x25 + 410.8 x26 + 31.6 x27 + 31.6 x28 
  + 442.4 x29 + 474 x30 + 94.8 x31 + 31.6 x32 + 505.6 x33 + 474 x34 + 94.8 x35 + 126.4 x36 + 126.4 x37 
  - 347.6 x38 - 252.8 x39 + 126.4 x40 - 94.8 x41 + 474 x42 + 474 x43 + 31.6 x44 + 505.6 x45 + 158 x46 
  - 284.4 x47 + 189.6 x48 + 158 x49 - 316 x50 + 158 x51 - 221.2 x52 - 63.2 x53 + 158 x54 + 158 x55 - 221.2 x56 
  - 221.2 x57 - 284.4 x58 + 189.6 x59 - 126.4 x60 - 126.4 x61 - 600.4 x62 - 505.6 x63 - 126.4 x64 - 505.6 x65 
  - 347.6 x66 - 94.8 x67 + 158 x68 + 158 x69 - 316 x70 - 221.2 x71 - 63.2 x72 - 284.4 x73 + 189.6 x74 
  + 158 x75 + 158 x76 - 316 x77 - 221.2 x78 + 158 x79 - 221.2 x80 - 63.2 x81 - 284.4 x82 + 189.6 x83 
  - 316 x84 - 221.2 x85 - 284.4 x86 - 63.2 x87 + 758.4 x88 + 284.4 x89 + 379.2 x90 + 758.4 x91 + 316 x92 
  + 790 x93 - 126.4 x94 - 126.4 x95 - 126.4 x96 - 126.4 x97 - 126.4 x98 + 316 x99 + 316 x100 + 316 x101 
  + 316 x102 - 126.4 x103 + 158 x104 - 126.4 x105 - 126.4 x106 - 126.4 x107 - 726.8 x108 + 94.8 x109 
  + 94.8 x110 + 94.8 x111 + 379.2 x112 + 94.8 x113 + 94.8 x114 + 94.8 x115 - 505.6 x116 + 252.8 x117 
  + 537.2 x118 + 252.8 x119 + 252.8 x120 + 316 x121 + 316 x122 + 316 x123 + 316 x124 + 316 x125 + 316 x126 
  + 316 x127 + 316 x128 - 284.4 x129 - 31.6 x130 - 31.6 x131 - 31.6 x132 - 31.6 x133 - 632 x134 + 316 x135 
  + 316 x136 + 316 x137 + 600.4 x138 + 316 x139 + 316 x140 + 316 x141 - 284.4 x142 + 0 x143 + 0 x144 
  + 0 x145 + 0 x146 + 0 x147 + 0 x148 + 0 x149 + 0 x150 + 0 x151 + 0 x152 + 0 x153 + 0 x154 + 0 x155 
  + 0 x156 + 0 x157 + 0 x158 + 0 x159 + 0 x160 + 0 x161 + 0 x162 + 0 x163 + 0 x164 + 0 x165 + 0 x166 
  + 0 x167 + 0 x168 + 0 x169 + 0 x170 + 0 x171 + 0 x172

Subject To
 e2: x2 + x3 + x4 + x46 + x47 + x48 + x49 + x50 + x51 + x52 + x53 + x54 + x55 + x56 + x57 + x58 + x59 
  + x68 + x69 + x70 + x71 + x72 + x73 + x74 + x75 + x76 + x77 + x78 + x79 + x80 + x81 + x82 + x83 + x84 
  + x85 + x86 + x87 + x88 + x89 + x90 + x91 + x92 + x93 - x94 - x95 - x96 - x97 - x98 - x99 - x100 - x101 
  - x102 - x103 - x105 - x106 - x107 - x108 - x109 - x110 - x111 - x113 - x114 - x115 - x116 - x117 - x119 
  - x120 - x121 - x122 - x123 - x124 - x125 - x126 - x127 - x128 - x129 - x130 - x131 - x132 - x133 - x134 
  - x135 - x136 - x137 - x139 - x140 - x141 - x142 <= 10
 e3: x5 + x6 + x7 + x8 + x9 + x10 + x11 + x94 + x95 + x96 + x97 + x98 <= 10
 e4: x12 + x13 + x14 + x15 + x88 + x89 + x90 + x91 + x92 + x93 + x99 + x100 + x101 + x102 - x108 - x116 
  - x129 - x134 - x142 + x170 <= 10
 e5: x16 + x17 + x103 + x104 + x105 + x106 + x107 + x108 <= 10
 e6: x18 + x19 + x20 + x21 + x22 + x23 + x24 + x25 + x109 + x110 + x111 + x112 + x113 + x114 + x115 + x116
   <= 10
 e7: x26 + x27 + x28 + x29 + x117 + x118 + x119 + x120 <= 10
 e8: x30 + x31 + x32 + x33 + x121 + x122 + x123 + x124 + x171 <= 10
 e9: x34 + x35 + x125 + x126 + x127 + x128 + x129 <= 10
 e10: x36 + x37 + x38 + x39 + x40 + x41 + x130 + x131 + x132 + x133 + x134 <= 10
 e11: x42 + x43 + x44 + x45 + x135 + x136 + x137 + x138 + x139 + x140 + x141 + x142 + x172 <= 10
 e12: x2 + x5 + x12 + x18 + x26 + x30 + x36 + x42 + x46 + x54 + x60 + x68 + x75 + x88 <= 0.601266
 e13: x19 + x34 + x37 + x49 + x55 + x61 + x69 + x76 <= 1.29747
 e14: x6 + x16 + x20 + x38 + x50 + x62 + x70 + x77 + x84 + x89 + x170 + x171 + x172 <= 1.42405
 e15: x7 + x13 + x21 + x27 + x31 + x39 + x56 + x63 + x78 + x85 + x90 <= 1.20253
 e16: x22 + x40 + x43 + x51 + x64 + x79 + x91 <= 0.443038
 e17: x3 + x8 + x23 + x28 + x35 + x52 + x57 + x65 + x71 + x80 <= 1.8038
 e18: x9 + x14 + x24 + x41 + x53 + x66 + x72 + x81 + x87 <= 0.85443
 e19: x10 + x25 + x32 + x44 + x47 + x58 + x73 + x82 + x86 + x92 <= 1.42405
 e20: x4 + x11 + x15 + x17 + x29 + x33 + x45 + x48 + x59 + x67 + x74 + x83 + x93 <= 0.949367
 e21: x46 + x47 + x48 <= 10
 e22: x49 + x50 + x51 + x52 + x53 <= 10
 e23: x54 + x55 + x56 + x57 + x58 + x59 <= 10
 e24: x60 + x61 + x62 + x63 + x64 + x65 + x66 + x67 <= 10
 e25: x68 + x69 + x70 + x71 + x72 + x73 + x74 <= 10
 e26: x75 + x76 + x77 + x78 + x79 + x80 + x81 + x82 + x83 <= 10
 e27: x84 + x85 + x86 <= 10
 e28: x88 + x89 + x90 + x91 + x92 + x93 <= 10
 e29: x46 + x47 + x48 - x94 - x109 - x117 - x125 - x135 >= 0
 e30: x49 + x50 + x51 + x52 + x53 - x95 - x99 - x110 - x121 - x130 - x136 >= 0
 e31: x54 + x55 + x56 + x57 + x58 + x59 - x100 - x103 - x111 - x122 - x126 - x131 - x137 >= 0
 e32: x68 + x69 + x70 + x71 + x72 + x73 + x74 - x96 - x105 - x127 >= 0
 e33: x75 + x76 + x77 + x78 + x79 + x80 + x81 + x82 + x83 - x97 - x101 - x106 - x113 - x119 - x123 - x128 
  - x132 - x139 >= 0
 e34: x84 + x85 + x86 - x102 - x114 - x140 >= 0
 e35: x87 - x98 - x107 - x115 - x120 - x124 - x133 - x141 >= 0
 e36: x88 + x89 + x90 + x91 + x92 + x93 - x108 - x116 - x129 - x134 - x142 >= 0
 e37: x88 + x89 + x90 + x91 + x92 + x93 - x108 - x116 - x129 - x134 - x142 >= 0
 e38: - 4.49198 x46 - 4.49198 x47 - 4.49198 x48 - 0.26738 x94 - 0.427807 x109 + 4.0107 x117 + 2.6738 x125 
  - 0.213904 x135 + [ x46 * x143 + x47 * x143 + x48 * x143 ] = 0
 e39: - 4.49198 x49 - 4.49198 x50 - 4.49198 x51 - 4.49198 x52 - 4.49198 x53 - 0.26738 x95 + 3.63636 x99 
  - 0.427807 x110 + 2.62032 x121 + 0.26738 x130 - 0.213904 x136 + [ x49 * x144 + x50 * x144 + x51 * x144 
  + x52 * x144 + x53 * x144 ] = 0
 e40: - 4.49198 x54 - 4.49198 x55 - 4.49198 x56 - 4.49198 x57 - 4.49198 x58 - 4.49198 x59 + 3.63636 x100 
  + 0.0534759 x103 - 0.427807 x111 + 2.62032 x122 + 2.6738 x126 + 0.26738 x131 - 0.213904 x137 + [ x54 * x145 
  + x55 * x145 + x56 * x145 + x57 * x145 + x58 * x145 + x59 * x145 ] = 0
 e41: - 4.4385 x104 - 4.91979 x112 - 0.481283 x118 - 4.70588 x138 + [ x60 * x146 + x61 * x146 + x62 * x146 
  + x63 * x146 + x64 * x146 + x65 * x146 + x66 * x146 + x67 * x146 ] = 0
 e42: - 4.49198 x68 - 4.49198 x69 - 4.49198 x70 - 4.49198 x71 - 4.49198 x72 - 4.49198 x73 - 4.49198 x74 
  - 0.26738 x96 + 0.0534759 x105 + 2.6738 x127 + [ x68 * x147 + x69 * x147 + x70 * x147 + x71 * x147 
  + x72 * x147 + x73 * x147 + x74 * x147 ] = 0
 e43: - 4.49198 x75 - 4.49198 x76 - 4.49198 x77 - 4.49198 x78 - 4.49198 x79 - 4.49198 x80 - 4.49198 x81 
  - 4.49198 x82 - 4.49198 x83 - 0.26738 x97 + 3.63636 x101 + 0.0534759 x106 - 0.427807 x113 + 4.0107 x119 
  + 2.62032 x123 + 2.6738 x128 + 0.26738 x132 - 0.213904 x139 + [ x75 * x148 + x76 * x148 + x77 * x148 
  + x78 * x148 + x79 * x148 + x80 * x148 + x81 * x148 + x82 * x148 + x83 * x148 ] = 0
 e44: - 4.49198 x84 - 4.49198 x85 - 4.49198 x86 + 3.63636 x102 - 0.427807 x114 - 0.213904 x140 + [ x84 * x149 
  + x85 * x149 + x86 * x149 ] = 0
 e45: - 4.49198 x87 - 0.26738 x98 + 0.0534759 x107 - 0.427807 x115 + 4.0107 x120 + 2.62032 x124 + 0.26738 x133 
  - 0.213904 x141 + [ x87 * x150 ] = 0
 e46: - 5.34759 x88 - 5.34759 x89 - 5.34759 x90 - 5.34759 x91 - 5.34759 x92 - 5.34759 x93 + 0.909091 x108 
  + 0.427807 x116 + 3.52941 x129 + 1.12299 x134 + 0.641711 x142 + [ x88 * x151 + x89 * x151 + x90 * x151 
  + x91 * x151 + x92 * x151 + x93 * x151 ] = 0
 e47: 4.0107 x2 + 4.27807 x5 + 0.374332 x12 + 4.4385 x18 + 1.39037 x30 + 3.74332 x36 + 4.2246 x42 - 0.481283 x46 
  - 0.481283 x54 - 0.481283 x60 - 0.481283 x68 - 0.481283 x75 - 0.481283 x88 + [ x46 * x143 + x54 * x145 
  + x60 * x146 + x68 * x147 + x75 * x148 + x88 * x151 ] >= 0
 e48: - 0.855615 x2 - 0.588235 x5 - 4.49198 x12 - 0.427807 x18 - 4.86631 x26 - 3.47594 x30 - 1.12299 x36 
  - 0.641711 x42 - 5.34759 x46 - 5.34759 x54 - 5.34759 x60 - 5.34759 x68 - 5.34759 x75 - 5.34759 x88 + 
  [ x46 * x143 + x54 * x145 + x60 * x146 + x68 * x147 + x75 * x148 + x88 * x151 ] <= 0
 e49: 4.4385 x19 + 1.3369 x34 + 3.74332 x37 - 0.481283 x49 - 0.481283 x55 - 0.481283 x61 - 0.481283 x69 
  - 0.481283 x76 + [ x49 * x144 + x55 * x145 + x61 * x146 + x69 * x147 + x76 * x148 ] >= 0
 e50: - 5.08021 x19 - 8.18182 x34 - 5.7754 x37 - 10 x49 - 10 x55 - 10 x61 - 10 x69 - 10 x76 + [ x49 * x144 
  + x55 * x145 + x61 * x146 + x69 * x147 + x76 * x148 ] <= 0
 e51: 4.27807 x6 + 3.95722 x16 + 4.4385 x20 + 3.74332 x38 - 0.481283 x50 - 0.481283 x62 - 0.481283 x70 
  - 0.481283 x77 - 0.481283 x84 - 0.481283 x89 + 0.374332 x170 + 1.39037 x171 + 4.2246 x172 + [ x50 * x144 
  + x62 * x146 + x70 * x147 + x77 * x148 + x84 * x149 + x89 * x151 ] >= 0
 e52: 0.802139 x6 + 0.481283 x16 + 0.962567 x20 + 0.26738 x38 - 3.95722 x50 - 3.95722 x62 - 3.95722 x70 
  - 3.95722 x77 - 3.95722 x84 - 3.95722 x89 - 3.1016 x170 - 2.08556 x171 + 0.748663 x172 + [ x50 * x144 
  + x62 * x146 + x70 * x147 + x77 * x148 + x84 * x149 + x89 * x151 ] <= 0
 e53: 4.27807 x7 + 0.374332 x13 + 4.4385 x21 + 1.39037 x31 + 3.74332 x39 - 0.481283 x56 - 0.481283 x63 
  - 0.481283 x78 - 0.481283 x85 - 0.481283 x90 + [ x56 * x145 + x63 * x146 + x78 * x148 + x85 * x149 
  + x90 * x151 ] >= 0
 e54: - 0.26738 x7 - 4.17112 x13 - 0.106952 x21 - 4.54545 x27 - 3.15508 x31 - 0.802139 x39 - 5.02674 x56 
  - 5.02674 x63 - 5.02674 x78 - 5.02674 x85 - 5.02674 x90 + [ x56 * x145 + x63 * x146 + x78 * x148 + x85 * x149 
  + x90 * x151 ] <= 0
 e55: 4.4385 x22 + 3.74332 x40 + 4.2246 x43 - 0.481283 x51 - 0.481283 x64 - 0.481283 x79 - 0.481283 x91
   + [ x51 * x144 + x64 * x146 + x79 * x148 + x91 * x151 ] >= 0
 e56: - 0.962567 x22 - 1.65775 x40 - 1.17647 x43 - 5.88235 x51 - 5.88235 x64 - 5.88235 x79 - 5.88235 x91
   + [ x51 * x144 + x64 * x146 + x79 * x148 + x91 * x151 ] <= 0
 e57: 4.0107 x3 + 4.27807 x8 + 4.4385 x23 + 1.3369 x35 - 0.481283 x52 - 0.481283 x57 - 0.481283 x65 - 0.481283 x71 
  - 0.481283 x80 + [ x52 * x144 + x57 * x145 + x65 * x146 + x71 * x147 + x80 * x148 ] >= 0
 e58: 1.12299 x3 + 1.39037 x8 + 1.5508 x23 - 2.8877 x28 - 1.5508 x35 - 3.36898 x52 - 3.36898 x57 - 3.36898 x65 
  - 3.36898 x71 - 3.36898 x80 + [ x52 * x144 + x57 * x145 + x65 * x146 + x71 * x147 + x80 * x148 ] <= 
  0
 e59: 4.27807 x9 + 0.374332 x14 + 4.4385 x24 + 3.74332 x41 - 0.481283 x53 - 0.481283 x66 - 0.481283 x72 
  - 0.481283 x81 - 0.481283 x87 + [ x53 * x144 + x66 * x146 + x72 * x147 + x81 * x148 + x87 * x150 ] >= 
  0
 e60: 0.160428 x9 - 3.74332 x14 + 0.320856 x24 - 0.374332 x41 - 4.59893 x53 - 4.59893 x66 - 4.59893 x72 
  - 4.59893 x81 - 4.59893 x87 + [ x53 * x144 + x66 * x146 + x72 * x147 + x81 * x148 + x87 * x150 ] <= 
  0
 e61: 4.27807 x10 + 4.4385 x25 + 1.39037 x32 + 4.2246 x44 - 0.481283 x47 - 0.481283 x58 - 0.481283 x73 
  - 0.481283 x82 - 0.481283 x86 - 0.481283 x92 + [ x47 * x143 + x58 * x145 + x73 * x147 + x82 * x148 
  + x86 * x149 + x92 * x151 ] >= 0
 e62: - 3.26203 x10 - 3.1016 x25 - 6.14973 x32 - 3.31551 x44 - 8.02139 x47 - 8.02139 x58 - 8.02139 x73 
  - 8.02139 x82 - 8.02139 x86 - 8.02139 x92 + [ x47 * x143 + x58 * x145 + x73 * x147 + x82 * x148 + x86 * x149 
  + x92 * x151 ] <= 0
 e63: 4.0107 x4 + 4.27807 x11 + 0.374332 x15 + 3.95722 x17 + 1.39037 x33 + 4.2246 x45 - 0.481283 x48 
  - 0.481283 x59 - 0.481283 x67 - 0.481283 x74 - 0.481283 x83 - 0.481283 x93 + [ x48 * x143 + x59 * x145 
  + x67 * x146 + x74 * x147 + x83 * x148 + x93 * x151 ] >= 0
 e64: - 3.31551 x4 - 3.04813 x11 - 6.95187 x15 - 3.36898 x17 - 7.3262 x29 - 5.93583 x33 - 3.1016 x45 
  - 7.80749 x48 - 7.80749 x59 - 7.80749 x67 - 7.80749 x74 - 7.80749 x83 - 7.80749 x93 + [ x48 * x143 
  + x59 * x145 + x67 * x146 + x74 * x147 + x83 * x148 + x93 * x151 ] <= 0
 e65: - 1.73469 x46 - 1.73469 x47 - 1.73469 x48 - 1.58163 x94 - 2.5 x109 - 1.63265 x117 - 2.09184 x125 
  - 0.867347 x135 + [ x46 * x152 + x47 * x152 + x48 * x152 ] = 0
 e66: - 1.73469 x49 - 1.73469 x50 - 1.73469 x51 - 1.73469 x52 - 1.73469 x53 - 1.58163 x95 - 2.04082 x99 
  - 2.5 x110 - 2.65306 x121 + 0.204082 x130 - 0.867347 x136 + [ x49 * x153 + x50 * x153 + x51 * x153 
  + x52 * x153 + x53 * x153 ] = 0
 e67: - 1.73469 x54 - 1.73469 x55 - 1.73469 x56 - 1.73469 x57 - 1.73469 x58 - 1.73469 x59 - 2.04082 x100 
  - 1.22449 x103 - 2.5 x111 - 2.65306 x122 - 2.09184 x126 + 0.204082 x131 - 0.867347 x137 + [ x54 * x154 
  + x55 * x154 + x56 * x154 + x57 * x154 + x58 * x154 + x59 * x154 ] = 0
 e68: - 2.95918 x104 - 4.23469 x112 - 3.36735 x118 - 2.60204 x138 + [ x60 * x155 + x61 * x155 + x62 * x155 
  + x63 * x155 + x64 * x155 + x65 * x155 + x66 * x155 + x67 * x155 ] = 0
 e69: - 1.73469 x68 - 1.73469 x69 - 1.73469 x70 - 1.73469 x71 - 1.73469 x72 - 1.73469 x73 - 1.73469 x74 
  - 1.58163 x96 - 1.22449 x105 - 2.09184 x127 + [ x68 * x156 + x69 * x156 + x70 * x156 + x71 * x156 + x72 * x156 
  + x73 * x156 + x74 * x156 ] = 0
 e70: - 1.73469 x75 - 1.73469 x76 - 1.73469 x77 - 1.73469 x78 - 1.73469 x79 - 1.73469 x80 - 1.73469 x81 
  - 1.73469 x82 - 1.73469 x83 - 1.58163 x97 - 2.04082 x101 - 1.22449 x106 - 2.5 x113 - 1.63265 x119 - 2.65306 x123 
  - 2.09184 x128 + 0.204082 x132 - 0.867347 x139 + [ x75 * x157 + x76 * x157 + x77 * x157 + x78 * x157 
  + x79 * x157 + x80 * x157 + x81 * x157 + x82 * x157 + x83 * x157 ] = 0
 e71: - 1.73469 x84 - 1.73469 x85 - 1.73469 x86 - 2.04082 x102 - 2.5 x114 - 0.867347 x140 + [ x84 * x158 
  + x85 * x158 + x86 * x158 ] = 0
 e72: - 1.73469 x87 - 1.58163 x98 - 1.22449 x107 - 2.5 x115 - 1.63265 x120 - 2.65306 x124 + 0.204082 x133 
  - 0.867347 x141 + [ x87 * x159 ] = 0
 e73: - 5.5102 x88 - 5.5102 x89 - 5.5102 x90 - 5.5102 x91 - 5.5102 x92 - 5.5102 x93 + 2.55102 x108 + 1.27551 x116 
  + 1.68367 x129 + 3.97959 x134 + 2.90816 x142 + [ x88 * x160 + x89 * x160 + x90 * x160 + x91 * x160 
  + x92 * x160 + x93 * x160 ] = 0
 e74: 0.204082 x2 + 1.78571 x5 + 2.2449 x12 + 2.70408 x18 + 1.83673 x26 + 2.85714 x30 + 1.07143 x42 - 1.53061 x46 
  - 1.53061 x54 - 1.53061 x60 - 1.53061 x68 - 1.53061 x75 - 1.53061 x88 + [ x46 * x152 + x54 * x154 + x60 * x155 
  + x68 * x156 + x75 * x157 + x88 * x160 ] >= 0
 e75: - 6.68367 x2 - 5.10204 x5 - 4.64286 x12 - 4.18367 x18 - 5.05102 x26 - 4.03061 x30 - 6.88776 x36 
  - 5.81633 x42 - 8.41837 x46 - 8.41837 x54 - 8.41837 x60 - 8.41837 x68 - 8.41837 x75 - 8.41837 x88 + 
  [ x46 * x152 + x54 * x154 + x60 * x155 + x68 * x156 + x75 * x157 + x88 * x160 ] <= 0
 e76: 2.70408 x19 + 2.29592 x34 - 1.53061 x49 - 1.53061 x55 - 1.53061 x61 - 1.53061 x69 - 1.53061 x76
   + [ x49 * x153 + x55 * x154 + x61 * x155 + x69 * x156 + x76 * x157 ] >= 0
 e77: - 3.16327 x19 - 3.57143 x34 - 5.86735 x37 - 7.39796 x49 - 7.39796 x55 - 7.39796 x61 - 7.39796 x69 
  - 7.39796 x76 + [ x49 * x153 + x55 * x154 + x61 * x155 + x69 * x156 + x76 * x157 ] <= 0
 e78: 1.78571 x6 + 1.42857 x16 + 2.70408 x20 - 1.53061 x50 - 1.53061 x62 - 1.53061 x70 - 1.53061 x77 
  - 1.53061 x84 - 1.53061 x89 + 2.2449 x170 + 2.85714 x171 + 1.07143 x172 + [ x50 * x153 + x62 * x155 
  + x70 * x156 + x77 * x157 + x84 * x158 + x89 * x160 ] >= 0
 e79: - 2.29592 x6 - 2.65306 x16 - 1.37755 x20 - 4.08163 x38 - 5.61224 x50 - 5.61224 x62 - 5.61224 x70 
  - 5.61224 x77 - 5.61224 x84 - 5.61224 x89 - 1.83673 x170 - 1.22449 x171 - 3.0102 x172 + [ x50 * x153 
  + x62 * x155 + x70 * x156 + x77 * x157 + x84 * x158 + x89 * x160 ] <= 0
 e80: 1.78571 x7 + 2.2449 x13 + 2.70408 x21 + 1.83673 x27 + 2.85714 x31 - 1.53061 x56 - 1.53061 x63 - 1.53061 x78 
  - 1.53061 x85 - 1.53061 x90 + [ x56 * x154 + x63 * x155 + x78 * x157 + x85 * x158 + x90 * x160 ] >= 
  0
 e81: - 4.13265 x7 - 3.67347 x13 - 3.21429 x21 - 4.08163 x27 - 3.06122 x31 - 5.91837 x39 - 7.44898 x56 
  - 7.44898 x63 - 7.44898 x78 - 7.44898 x85 - 7.44898 x90 + [ x56 * x154 + x63 * x155 + x78 * x157 + x85 * x158 
  + x90 * x160 ] <= 0
 e82: 2.70408 x22 + 1.07143 x43 - 1.53061 x51 - 1.53061 x64 - 1.53061 x79 - 1.53061 x91 + [ x51 * x153 
  + x64 * x155 + x79 * x157 + x91 * x160 ] >= 0
 e83: - 5.15306 x22 - 7.85714 x40 - 6.78571 x43 - 9.38776 x51 - 9.38776 x64 - 9.38776 x79 - 9.38776 x91
   + [ x51 * x153 + x64 * x155 + x79 * x157 + x91 * x160 ] <= 0
 e84: 0.204082 x3 + 1.78571 x8 + 2.70408 x23 + 1.83673 x28 + 2.29592 x35 - 1.53061 x52 - 1.53061 x57 
  - 1.53061 x65 - 1.53061 x71 - 1.53061 x80 + [ x52 * x153 + x57 * x154 + x65 * x155 + x71 * x156 + x80 * x157 
  ] >= 0
 e85: - 2.29592 x3 - 0.714286 x8 + 0.204082 x23 - 0.663265 x28 - 0.204082 x35 - 4.03061 x52 - 4.03061 x57 
  - 4.03061 x65 - 4.03061 x71 - 4.03061 x80 + [ x52 * x153 + x57 * x154 + x65 * x155 + x71 * x156 + x80 * x157 
  ] <= 0
 e86: 1.78571 x9 + 2.2449 x14 + 2.70408 x24 - 1.53061 x53 - 1.53061 x66 - 1.53061 x72 - 1.53061 x81 - 1.53061 x87
   + [ x53 * x153 + x66 * x155 + x72 * x156 + x81 * x157 + x87 * x159 ] >= 0
 e87: - 6.68367 x9 - 6.22449 x14 - 5.76531 x24 - 8.46939 x41 - 10 x53 - 10 x66 - 10 x72 - 10 x81 - 10 x87
   + [ x53 * x153 + x66 * x155 + x72 * x156 + x81 * x157 + x87 * x159 ] <= 0
 e88: 1.78571 x10 + 2.70408 x25 + 2.85714 x32 + 1.07143 x44 - 1.53061 x47 - 1.53061 x58 - 1.53061 x73 
  - 1.53061 x82 - 1.53061 x86 - 1.53061 x92 + [ x47 * x152 + x58 * x154 + x73 * x156 + x82 * x157 + x86 * x158 
  + x92 * x160 ] >= 0
 e89: - 3.31633 x10 - 2.39796 x25 - 2.2449 x32 - 4.03061 x44 - 6.63265 x47 - 6.63265 x58 - 6.63265 x73 
  - 6.63265 x82 - 6.63265 x86 - 6.63265 x92 + [ x47 * x152 + x58 * x154 + x73 * x156 + x82 * x157 + x86 * x158 
  + x92 * x160 ] <= 0
 e90: 0.204082 x4 + 1.78571 x11 + 2.2449 x15 + 1.42857 x17 + 1.83673 x29 + 2.85714 x33 + 1.07143 x45 
  - 1.53061 x48 - 1.53061 x59 - 1.53061 x67 - 1.53061 x74 - 1.53061 x83 - 1.53061 x93 + [ x48 * x152 
  + x59 * x154 + x67 * x155 + x74 * x156 + x83 * x157 + x93 * x160 ] >= 0
 e91: - 3.52041 x4 - 1.93878 x11 - 1.47959 x15 - 2.29592 x17 - 1.88776 x29 - 0.867347 x33 - 2.65306 x45 
  - 5.2551 x48 - 5.2551 x59 - 5.2551 x67 - 5.2551 x74 - 5.2551 x83 - 5.2551 x93 + [ x48 * x152 + x59 * x154 
  + x67 * x155 + x74 * x156 + x83 * x157 + x93 * x160 ] <= 0
 e92: - 1.2973 x46 - 1.2973 x47 - 1.2973 x48 - 1.08108 x94 - 0.702703 x109 - 0.108108 x117 + 0.162162 x125 
  - 1.89189 x135 + [ x46 * x161 + x47 * x161 + x48 * x161 ] = 0
 e93: - 1.2973 x49 - 1.2973 x50 - 1.2973 x51 - 1.2973 x52 - 1.2973 x53 - 1.08108 x95 + 0.540541 x99 - 0.702703 x110 
  - 1.08108 x121 - 0.540541 x130 - 1.89189 x136 + [ x49 * x162 + x50 * x162 + x51 * x162 + x52 * x162 
  + x53 * x162 ] = 0
 e94: - 1.2973 x54 - 1.2973 x55 - 1.2973 x56 - 1.2973 x57 - 1.2973 x58 - 1.2973 x59 + 0.540541 x100 - 2.86486 x103 
  - 0.702703 x111 - 1.08108 x122 + 0.162162 x126 - 0.540541 x131 - 1.89189 x137 + [ x54 * x163 + x55 * x163 
  + x56 * x163 + x57 * x163 + x58 * x163 + x59 * x163 ] = 0
 e95: - 4.16216 x104 - 2 x112 - 1.40541 x118 - 3.18919 x138 + [ x60 * x164 + x61 * x164 + x62 * x164 
  + x63 * x164 + x64 * x164 + x65 * x164 + x66 * x164 + x67 * x164 ] = 0
 e96: - 1.2973 x68 - 1.2973 x69 - 1.2973 x70 - 1.2973 x71 - 1.2973 x72 - 1.2973 x73 - 1.2973 x74 - 1.08108 x96 
  - 2.86486 x105 + 0.162162 x127 + [ x68 * x165 + x69 * x165 + x70 * x165 + x71 * x165 + x72 * x165 + x73 * x165 
  + x74 * x165 ] = 0
 e97: - 1.2973 x75 - 1.2973 x76 - 1.2973 x77 - 1.2973 x78 - 1.2973 x79 - 1.2973 x80 - 1.2973 x81 - 1.2973 x82 
  - 1.2973 x83 - 1.08108 x97 + 0.540541 x101 - 2.86486 x106 - 0.702703 x113 - 0.108108 x119 - 1.08108 x123 
  + 0.162162 x128 - 0.540541 x132 - 1.89189 x139 + [ x75 * x166 + x76 * x166 + x77 * x166 + x78 * x166 
  + x79 * x166 + x80 * x166 + x81 * x166 + x82 * x166 + x83 * x166 ] = 0
 e98: - 1.2973 x84 - 1.2973 x85 - 1.2973 x86 + 0.540541 x102 - 0.702703 x114 - 1.89189 x140 + [ x84 * x167 
  + x85 * x167 + x86 * x167 ] = 0
 e99: - 1.2973 x87 - 1.08108 x98 - 2.86486 x107 - 0.702703 x115 - 0.108108 x120 - 1.08108 x124 - 0.540541 x133 
  - 1.89189 x141 + [ x87 * x168 ] = 0
 e100: - 2.05405 x88 - 2.05405 x89 - 2.05405 x90 - 2.05405 x91 - 2.05405 x92 - 2.05405 x93 - 2.10811 x108 
  + 0.0540541 x116 + 0.918919 x129 + 0.216216 x134 - 1.13514 x142 + [ x88 * x169 + x89 * x169 + x90 * x169 
  + x91 * x169 + x92 * x169 + x93 * x169 ] = 0
 e101: 0.540541 x2 + 1.62162 x5 + 1.24324 x18 + 0.648649 x26 + 1.62162 x30 + 1.08108 x36 + 2.43243 x42 
  - 0.756757 x46 - 0.756757 x54 - 0.756757 x60 - 0.756757 x68 - 0.756757 x75 - 0.756757 x88 + [ x46 * x161 
  + x54 * x163 + x60 * x164 + x68 * x165 + x75 * x166 + x88 * x169 ] >= 0
 e102: - 3.67568 x2 - 2.59459 x5 - 4.21622 x12 - 2.97297 x18 - 3.56757 x26 - 2.59459 x30 - 3.13514 x36 
  - 1.78378 x42 - 4.97297 x46 - 4.97297 x54 - 4.97297 x60 - 4.97297 x68 - 4.97297 x75 - 4.97297 x88 + 
  [ x46 * x161 + x54 * x163 + x60 * x164 + x68 * x165 + x75 * x166 + x88 * x169 ] <= 0
 e103: 1.24324 x19 + 0.378378 x34 + 1.08108 x37 - 0.756757 x49 - 0.756757 x55 - 0.756757 x61 - 0.756757 x69 
  - 0.756757 x76 + [ x49 * x162 + x55 * x163 + x61 * x164 + x69 * x165 + x76 * x166 ] >= 0
 e104: - 6.54054 x19 - 7.40541 x34 - 6.7027 x37 - 8.54054 x49 - 8.54054 x55 - 8.54054 x61 - 8.54054 x69 
  - 8.54054 x76 + [ x49 * x162 + x55 * x163 + x61 * x164 + x69 * x165 + x76 * x166 ] <= 0
 e105: 1.62162 x6 + 3.40541 x16 + 1.24324 x20 + 1.08108 x38 - 0.756757 x50 - 0.756757 x62 - 0.756757 x70 
  - 0.756757 x77 - 0.756757 x84 - 0.756757 x89 + 1.62162 x171 + 2.43243 x172 + [ x50 * x162 + x62 * x164 
  + x70 * x165 + x77 * x166 + x84 * x167 + x89 * x169 ] >= 0
 e106: - 1.35135 x6 + 0.432432 x16 - 1.72973 x20 - 1.89189 x38 - 3.72973 x50 - 3.72973 x62 - 3.72973 x70 
  - 3.72973 x77 - 3.72973 x84 - 3.72973 x89 - 2.97297 x170 - 1.35135 x171 - 0.540541 x172 + [ x50 * x162 
  + x62 * x164 + x70 * x165 + x77 * x166 + x84 * x167 + x89 * x169 ] <= 0
 e107: 1.62162 x7 + 1.24324 x21 + 0.648649 x27 + 1.62162 x31 + 1.08108 x39 - 0.756757 x56 - 0.756757 x63 
  - 0.756757 x78 - 0.756757 x85 - 0.756757 x90 + [ x56 * x163 + x63 * x164 + x78 * x166 + x85 * x167 
  + x90 * x169 ] >= 0
 e108: - 4.59459 x7 - 6.21622 x13 - 4.97297 x21 - 5.56757 x27 - 4.59459 x31 - 5.13514 x39 - 6.97297 x56 
  - 6.97297 x63 - 6.97297 x78 - 6.97297 x85 - 6.97297 x90 + [ x56 * x163 + x63 * x164 + x78 * x166 + x85 * x167 
  + x90 * x169 ] <= 0
 e109: 1.24324 x22 + 1.08108 x40 + 2.43243 x43 - 0.756757 x51 - 0.756757 x64 - 0.756757 x79 - 0.756757 x91
   + [ x51 * x162 + x64 * x164 + x79 * x166 + x91 * x169 ] >= 0
 e110: - 2.97297 x22 - 3.13514 x40 - 1.78378 x43 - 4.97297 x51 - 4.97297 x64 - 4.97297 x79 - 4.97297 x91
   + [ x51 * x162 + x64 * x164 + x79 * x166 + x91 * x169 ] <= 0
 e111: 0.540541 x3 + 1.62162 x8 + 1.24324 x23 + 0.648649 x28 + 0.378378 x35 - 0.756757 x52 - 0.756757 x57 
  - 0.756757 x65 - 0.756757 x71 - 0.756757 x80 + [ x52 * x162 + x57 * x163 + x65 * x164 + x71 * x165 
  + x80 * x166 ] >= 0
 e112: - 6.75676 x3 - 5.67568 x8 - 6.05405 x23 - 6.64865 x28 - 6.91892 x35 - 8.05405 x52 - 8.05405 x57 
  - 8.05405 x65 - 8.05405 x71 - 8.05405 x80 + [ x52 * x162 + x57 * x163 + x65 * x164 + x71 * x165 + x80 * x166 
  ] <= 0
 e113: 1.62162 x9 + 1.24324 x24 + 1.08108 x41 - 0.756757 x53 - 0.756757 x66 - 0.756757 x72 - 0.756757 x81 
  - 0.756757 x87 + [ x53 * x162 + x66 * x164 + x72 * x165 + x81 * x166 + x87 * x168 ] >= 0
 e114: - 7.62162 x9 - 9.24324 x14 - 8 x24 - 8.16216 x41 - 10 x53 - 10 x66 - 10 x72 - 10 x81 - 10 x87 + 
  [ x53 * x162 + x66 * x164 + x72 * x165 + x81 * x166 + x87 * x168 ] <= 0
 e115: 1.62162 x10 + 1.24324 x25 + 1.62162 x32 + 2.43243 x44 - 0.756757 x47 - 0.756757 x58 - 0.756757 x73 
  - 0.756757 x82 - 0.756757 x86 - 0.756757 x92 + [ x47 * x161 + x58 * x163 + x73 * x165 + x82 * x166 
  + x86 * x167 + x92 * x169 ] >= 0
 e116: - 0.648649 x10 - 1.02703 x25 - 0.648649 x32 + 0.162162 x44 - 3.02703 x47 - 3.02703 x58 - 3.02703 x73 
  - 3.02703 x82 - 3.02703 x86 - 3.02703 x92 + [ x47 * x161 + x58 * x163 + x73 * x165 + x82 * x166 + x86 * x167 
  + x92 * x169 ] <= 0
 e117: 0.540541 x4 + 1.62162 x11 + 3.40541 x17 + 0.648649 x29 + 1.62162 x33 + 2.43243 x45 - 0.756757 x48 
  - 0.756757 x59 - 0.756757 x67 - 0.756757 x74 - 0.756757 x83 - 0.756757 x93 + [ x48 * x161 + x59 * x163 
  + x67 * x164 + x74 * x165 + x83 * x166 + x93 * x169 ] >= 0
 e118: - 6.97297 x4 - 5.89189 x11 - 7.51351 x15 - 4.10811 x17 - 6.86486 x29 - 5.89189 x33 - 5.08108 x45 
  - 8.27027 x48 - 8.27027 x59 - 8.27027 x67 - 8.27027 x74 - 8.27027 x83 - 8.27027 x93 + [ x48 * x161 
  + x59 * x163 + x67 * x164 + x74 * x165 + x83 * x166 + x93 * x169 ] <= 0

Bounds
 x2 <= 0.601266
 x3 <= 1.8038
 x4 <= 0.949367
 x5 <= 0.601266
 x6 <= 1.42405
 x7 <= 1.20253
 x8 <= 1.8038
 x9 <= 0.85443
 x10 <= 1.42405
 x11 <= 0.949367
 x12 <= 0.601266
 x13 <= 1.20253
 x14 <= 0.85443
 x15 <= 0.949367
 x16 <= 1.42405
 x17 <= 0.949367
 x18 <= 0.601266
 x19 <= 1.29747
 x20 <= 1.42405
 x21 <= 1.20253
 x22 <= 0.443038
 x23 <= 1.8038
 x24 <= 0.85443
 x25 <= 1.42405
 x26 <= 0.601266
 x27 <= 1.20253
 x28 <= 1.8038
 x29 <= 0.949367
 x30 <= 0.601266
 x31 <= 1.20253
 x32 <= 1.42405
 x33 <= 0.949367
 x34 <= 1.29747
 x35 <= 1.8038
 x36 <= 0.601266
 x37 <= 1.29747
 x38 <= 1.42405
 x39 <= 1.20253
 x40 <= 0.443038
 x41 <= 0.85443
 x42 <= 0.601266
 x43 <= 0.443038
 x44 <= 1.42405
 x45 <= 0.949367
 x46 <= 0.601266
 x47 <= 1.42405
 x48 <= 0.949367
 x49 <= 1.29747
 x50 <= 1.42405
 x51 <= 0.443038
 x52 <= 1.8038
 x53 <= 0.85443
 x54 <= 0.601266
 x55 <= 1.29747
 x56 <= 1.20253
 x57 <= 1.8038
 x58 <= 1.42405
 x59 <= 0.949367
 x60 <= 0.601266
 x61 <= 1.29747
 x62 <= 1.42405
 x63 <= 1.20253
 x64 <= 0.443038
 x65 <= 1.8038
 x66 <= 0.85443
 x67 <= 0.949367
 x68 <= 0.601266
 x69 <= 1.29747
 x70 <= 1.42405
 x71 <= 1.8038
 x72 <= 0.85443
 x73 <= 1.42405
 x74 <= 0.949367
 x75 <= 0.601266
 x76 <= 1.29747
 x77 <= 1.42405
 x78 <= 1.20253
 x79 <= 0.443038
 x80 <= 1.8038
 x81 <= 0.85443
 x82 <= 1.42405
 x83 <= 0.949367
 x84 <= 1.42405
 x85 <= 1.20253
 x86 <= 1.42405
 x87 <= 0.85443
 x88 <= 0.601266
 x89 <= 1.42405
 x90 <= 1.20253
 x91 <= 0.443038
 x92 <= 1.42405
 x93 <= 0.949367
 x94 <= 10
 x95 <= 10
 x96 <= 10
 x97 <= 10
 x98 <= 10
 x99 <= 10
 x100 <= 10
 x101 <= 10
 x102 <= 10
 x103 <= 10
 x104 <= 10
 x105 <= 10
 x106 <= 10
 x107 <= 10
 x108 <= 10
 x109 <= 10
 x110 <= 10
 x111 <= 10
 x112 <= 10
 x113 <= 10
 x114 <= 10
 x115 <= 10
 x116 <= 10
 x117 <= 10
 x118 <= 10
 x119 <= 10
 x120 <= 10
 x121 <= 10
 x122 <= 10
 x123 <= 10
 x124 <= 10
 x125 <= 10
 x126 <= 10
 x127 <= 10
 x128 <= 10
 x129 <= 10
 x130 <= 10
 x131 <= 10
 x132 <= 10
 x133 <= 10
 x134 <= 10
 x135 <= 10
 x136 <= 10
 x137 <= 10
 x138 <= 10
 x139 <= 10
 x140 <= 10
 x141 <= 10
 x142 <= 10
 0.481283 <= x143 <= 4.91979
 0.855615 <= x144 <= 4.91979
 0.855615 <= x145 <= 4.91979
 0.481283 <= x146 <= 4.91979
 1.81818 <= x147 <= 4.75936
 0.481283 <= x148 <= 4.91979
 0.855615 <= x149 <= 4.91979
 0.481283 <= x150 <= 4.91979
 0.855615 <= x151 <= 4.91979
 1.73469 <= x152 <= 4.23469
 1.53061 <= x153 <= 4.38776
 1.53061 <= x154 <= 4.38776
 2.60204 <= x155 <= 4.23469
 1.73469 <= x156 <= 3.82653
 1.53061 <= x157 <= 4.38776
 1.73469 <= x158 <= 4.23469
 1.53061 <= x159 <= 4.38776
 1.53061 <= x160 <= 4.23469
 1.13514 <= x161 <= 3.18919
 0.756757 <= x162 <= 3.18919
 0.756757 <= x163 <= 4.16216
 1.40541 <= x164 <= 4.16216
 1.13514 <= x165 <= 4.16216
 0.756757 <= x166 <= 4.16216
 0.756757 <= x167 <= 3.18919
 1.2973 <= x168 <= 4.16216
 0.756757 <= x169 <= 4.16216
 x170 <= 1.42405
 x171 <= 1.42405
 x172 <= 1.42405

End
