\ Equation counts
\     Total        E        G        L        N        X        C        B
\       196      193        3        0        0        0        0        0
\ 
\ Variable counts
\                  x        b        i      s1s      s2s       sc       si
\     Total     cont   binary  integer     sos1     sos2    scont     sint
\       392      308       84        0        0        0        0        0
\ 
\ Nonzero counts
\     Total    const       NL      DLL
\       730      570      160        0
\ 
Minimize
 obj: 8000 x2 + 8000 x3 + 264 x4 + 53.6 x5 + 0 x6 + 0 x7 + 0 x8 + 0 x9 + 0 x10 + 0 x11 + 0 x12 + 0 x13 
  + 1680 x14 + 2400 x15 + 1260 x16 + 0 b17 + 0 b18 + 0 b19 + 0 b20 + 0 b21 + 0 b22 + 0 b23 + 0 b24 + 0 b25 
  + 0 b26 + 0 b27 + 0 b28 + 0 b29 + 0 x30 + 0 x31 + 0 b32 + 0 x33 + 0 x34 + 0 b35 + 0 x36 + 0 x37 + 0 b38 
  + 0 x39 + 0 x40 + 0 b41 + 0 x42 + 0 x43 + 0 b44 + 0 x45 + 0 x46 + 0 b47 + 0 x48 + 0 x49 + 0 b50 + 0 x51 
  + 0 x52 + 0 b53 + 0 x54 + 0 x55 + 0 b56 + 0 x57 + 0 x58 + 0 b59 + 0 x60 + 0 x61 + 0 b62 + 0 x63 + 0 x64 
  + 0 b65 + 0 x66 + 0 x67 + 0 b68 + 0 x69 + 0 x70 + 0 b71 + 0 x72 + 0 x73 + 0 b74 + 0 x75 + 0 x76 + 0 x77 
  + 0 x78 + 0 x79 + 0 x80 + 0 x81 + 0 x82 + 0 x83 + 0 x84 + 0 b85 + 0 x86 + 0 x87 + 0 b88 + 0 x89 + 0 x90 
  + 0 b91 + 0 x92 + 0 x93 + 0 b94 + 0 x95 + 0 x96 + 0 b97 + 0 x98 + 0 x99 + 0 b100 + 0 x101 + 0 x102 
  + 0 b103 + 0 x104 + 0 x105 + 0 b106 + 0 x107 + 0 x108 + 0 b109 + 0 x110 + 0 x111 + 0 b112 + 0 x113 
  + 0 x114 + 0 b115 + 0 x116 + 0 x117 + 0 b118 + 0 x119 + 0 x120 + 0 b121 + 0 x122 + 0 x123 + 0 b124 
  + 0 x125 + 0 x126 + 0 b127 + 0 x128 + 0 x129 + 0 b130 + 0 x131 + 0 x132 + 0 b133 + 0 x134 + 0 x135 
  + 0 b136 + 0 x137 + 0 x138 + 0 b139 + 0 x140 + 0 x141 + 0 b142 + 0 x143 + 0 x144 + 0 b145 + 0 x146 
  + 0 x147 + 0 b148 + 0 x149 + 0 x150 + 0 b151 + 0 x152 + 0 x153 + 0 b154 + 0 x155 + 0 x156 + 0 b157 
  + 0 x158 + 0 x159 + 0 b160 + 0 x161 + 0 x162 + 0 b163 + 0 x164 + 0 x165 + 0 b166 + 0 x167 + 0 x168 
  + 0 x169 + 0 x170 + 0 x171 + 0 x172 + 0 x173 + 0 x174 + 0 x175 + 0 x176 + 0 b177 + 0 x178 + 0 x179 
  + 0 b180 + 0 x181 + 0 x182 + 0 b183 + 0 x184 + 0 x185 + 0 b186 + 0 x187 + 0 x188 + 0 b189 + 0 x190 
  + 0 x191 + 0 b192 + 0 x193 + 0 x194 + 0 b195 + 0 x196 + 0 x197 + 0 b198 + 0 x199 + 0 x200 + 0 b201 
  + 0 x202 + 0 x203 + 0 b204 + 0 x205 + 0 x206 + 0 b207 + 0 x208 + 0 x209 + 0 b210 + 0 x211 + 0 x212 
  + 0 b213 + 0 x214 + 0 x215 + 0 b216 + 0 x217 + 0 x218 + 0 b219 + 0 x220 + 0 x221 + 0 b222 + 0 x223 
  + 0 x224 + 0 b225 + 0 x226 + 0 x227 + 0 b228 + 0 x229 + 0 x230 + 0 b231 + 0 x232 + 0 x233 + 0 b234 
  + 0 x235 + 0 x236 + 0 b237 + 0 x238 + 0 x239 + 0 b240 + 0 x241 + 0 x242 + 0 b243 + 0 x244 + 0 x245 
  + 0 b246 + 0 x247 + 0 x248 + 0 b249 + 0 x250 + 0 x251 + 0 b252 + 0 x253 + 0 x254 + 0 b255 + 0 x256 
  + 0 x257 + 0 b258 + 0 x259 + 0 x260 + 0 x261 + 0 x262 + 0 x263 + 0 x264 + 0 x265 + 0 x266 + 0 x267 
  + 0 x268 + 0 x269 + 0 x270 + 0 x271 + 0 x272 + 0 x273 + 0 x274 + 0 x275 + 0 x276 + 0 x277 + 0 x278 
  + 0 x279 + 0 x280 + 0 x281 + 0 x282 + 0 x283 + 0 x284 + 0 x285 + 0 x286 + 0 x287 + 0 x288 + 0 x289 
  + 0 x290 + 0 x291 + 0 x292 + 0 x293 + 0 x294 + 0 x295 + 0 x296 + 0 x297 + 0 x298 + 0 x299 + 0 x300 
  + 0 x301 + 0 x302 + 0 x303 + 0 x304 + 0 x305 + 0 x306 + 0 x307 + 0 x308 + 0 x309 + 0 x310 + 0 x311 
  + 0 x312 + 0 x313 + 0 x314 + 0 x315 + 0 x316 + 0 x317 + 0 x318 + 0 x319 + 0 x320 + 0 x321 + 0 x322 
  + 0 x323 + 0 x324 + 0 x325 + 0 x326 + 0 x327 + 0 x328 + 0 x329 + 0 x330 + 0 x331 + 0 x332 + 0 x333 
  + 0 x334 + 0 x335 + 0 x336 + 0 x337 + 0 x338 + 0 x339 + 0 x340 + 0 x341 + 0 x342 + 0 x343 + 0 x344 
  + 0 x345 + 0 x346 + 0 x347 + 0 x348 + 0 x349 + 0 x350 + 0 x351 + 0 x352 + 0 x353 + 0 x354 + 0 x355 
  + 0 x356 + 0 x357 + 0 x358 + 0 x359 + 0 x360 + 0 x361 + 0 x362 + 0 x363 + 0 x364 + 0 x365 + 0 x366 
  + 0 x367 + 0 x368 + 0 x369 + 0 x370 + 0 x371 + 0 x372 + 0 x373 + 0 x374 + 0 x375 + 0 x376 + 0 x377 
  + 0 x378 + 0 x379 + 0 x380 + 0 x381 + 0 x382 + 0 x383 + 0 x384 + 0 x385 + 0 x386 + 0 x387 + 0 x388 
  + 0 x389 + 0 x390 + 0 x391 + 0 x392 + 0 x393

Subject To
 e2: b17 + b18 + b19 + b20 = 1
 e3: b21 + b22 + b23 + b24 = 1
 e4: b25 + b26 + b27 + b28 = 1
 e5: - b29 + x30 + x31 = 0
 e6: - b32 + x33 + x34 = 0
 e7: - b35 + x36 + x37 = 0
 e8: - b38 + x39 + x40 = 0
 e9: - b41 + x42 + x43 = 0
 e10: - b44 + x45 + x46 = 0
 e11: - b47 + x48 + x49 = 0
 e12: - b50 + x51 + x52 = 0
 e13: - b53 + x54 + x55 = 0
 e14: - b56 + x57 + x58 = 0
 e15: - b59 + x60 + x61 = 0
 e16: - b62 + x63 + x64 = 0
 e17: - b65 + x66 + x67 = 0
 e18: - b68 + x69 + x70 = 0
 e19: - b71 + x72 + x73 = 0
 e20: - b74 + x75 + x76 = 0
 e21: - b17 + x77 + x78 = 0
 e22: - b18 + x79 + x80 = 0
 e23: - b19 + x81 + x82 = 0
 e24: - b20 + x83 + x84 = 0
 e25: - b85 + x86 + x87 = 0
 e26: - b88 + x89 + x90 = 0
 e27: - b91 + x92 + x93 = 0
 e28: - b94 + x95 + x96 = 0
 e29: - b97 + x98 + x99 = 0
 e30: - b100 + x101 + x102 = 0
 e31: - b103 + x104 + x105 = 0
 e32: - b106 + x107 + x108 = 0
 e33: - b109 + x110 + x111 = 0
 e34: - b112 + x113 + x114 = 0
 e35: - b115 + x116 + x117 = 0
 e36: - b118 + x119 + x120 = 0
 e37: - b121 + x122 + x123 = 0
 e38: - b124 + x125 + x126 = 0
 e39: - b127 + x128 + x129 = 0
 e40: - b130 + x131 + x132 = 0
 e41: - b133 + x134 + x135 = 0
 e42: - b136 + x137 + x138 = 0
 e43: - b139 + x140 + x141 = 0
 e44: - b142 + x143 + x144 = 0
 e45: - b145 + x146 + x147 = 0
 e46: - b148 + x149 + x150 = 0
 e47: - b151 + x152 + x153 = 0
 e48: - b154 + x155 + x156 = 0
 e49: - b157 + x158 + x159 = 0
 e50: - b160 + x161 + x162 = 0
 e51: - b163 + x164 + x165 = 0
 e52: - b166 + x167 + x168 = 0
 e53: - b21 + x169 + x170 = 0
 e54: - b22 + x171 + x172 = 0
 e55: - b23 + x173 + x174 = 0
 e56: - b24 + x175 + x176 = 0
 e57: - b177 + x178 + x179 = 0
 e58: - b180 + x181 + x182 = 0
 e59: - b183 + x184 + x185 = 0
 e60: - b186 + x187 + x188 = 0
 e61: - b189 + x190 + x191 = 0
 e62: - b192 + x193 + x194 = 0
 e63: - b195 + x196 + x197 = 0
 e64: - b198 + x199 + x200 = 0
 e65: - b201 + x202 + x203 = 0
 e66: - b204 + x205 + x206 = 0
 e67: - b207 + x208 + x209 = 0
 e68: - b210 + x211 + x212 = 0
 e69: - b213 + x214 + x215 = 0
 e70: - b216 + x217 + x218 = 0
 e71: - b219 + x220 + x221 = 0
 e72: - b222 + x223 + x224 = 0
 e73: - b225 + x226 + x227 = 0
 e74: - b228 + x229 + x230 = 0
 e75: - b231 + x232 + x233 = 0
 e76: - b234 + x235 + x236 = 0
 e77: - b237 + x238 + x239 = 0
 e78: - b240 + x241 + x242 = 0
 e79: - b243 + x244 + x245 = 0
 e80: - b246 + x247 + x248 = 0
 e81: - b249 + x250 + x251 = 0
 e82: - b252 + x253 + x254 = 0
 e83: - b255 + x256 + x257 = 0
 e84: - b258 + x259 + x260 = 0
 e85: - b25 + x261 + x262 = 0
 e86: - b26 + x263 + x264 = 0
 e87: - b27 + x265 + x266 = 0
 e88: - b28 + x267 + x268 = 0
 e89: x3 - 37.5 x78 - 37.5 x79 - 75 x80 - 75 x81 - 112.5 x82 - 112.5 x83 - 150 x84 = 0
 e90: x4 - 37.5 x170 - 37.5 x171 - 75 x172 - 75 x173 - 112.5 x174 - 112.5 x175 - 150 x176 = 0
 e91: x5 - 37.5 x262 - 37.5 x263 - 75 x264 - 75 x265 - 112.5 x266 - 112.5 x267 - 150 x268 = 0
 e92: x14 - 12.64217761 x78 - 12.64217761 x79 - 20.53727812 x80 - 20.53727812 x81 - 27.27763826 x82 - 27.27763826 x83 
  - 33.36290673 x84 - 33.36290673 x269 >= 0
 e93: x15 - 12.64217761 x170 - 12.64217761 x171 - 20.53727812 x172 - 20.53727812 x173 - 27.27763826 x174 
  - 27.27763826 x175 - 33.36290673 x176 - 33.36290673 x270 >= 0
 e94: x16 - 12.64217761 x262 - 12.64217761 x263 - 20.53727812 x264 - 20.53727812 x265 - 27.27763826 x266 
  - 27.27763826 x267 - 33.36290673 x268 - 33.36290673 x271 >= 0
 e95: x272 + x273 + x274 + x275 + x276 + x277 = 40
 e96: x278 + x279 + x280 + x281 + x282 + x283 = 50
 e97: x284 + x285 + x286 + x287 + x288 + x289 = 60
 e98: x290 + x291 + x292 + x293 + x294 - x295 = 0
 e99: x296 + x297 + x298 + x299 + x300 - x301 = 0
 e100: x302 + x303 + x304 + x305 + x306 - x307 = 0
 e101: - x2 + x308 + x309 + x310 + x311 + x312 + x313 = 0
 e102: x279 + x285 + x290 + x296 + x302 + x308 = 40
 e103: x273 + x286 + x291 + x297 + x303 + x309 = 50
 e104: x274 + x280 + x292 + x298 + x304 + x310 = 60
 e105: - x3 + x275 + x281 + x287 + x299 + x305 + x311 = 0
 e106: - x4 + x276 + x282 + x288 + x293 + x306 + x312 = 0
 e107: - x5 + x277 + x283 + x289 + x294 + x300 + x313 = 0
 e108: x314 - x315 = 0
 e109: - x315 + x316 = 0
 e110: - x315 + x317 = 0
 e111: - x315 + x318 = 0
 e112: - x315 + x319 = 0
 e113: - x315 + x320 = 0
 e114: x321 - x322 = 0
 e115: - x322 + x323 = 0
 e116: - x322 + x324 = 0
 e117: - x322 + x325 = 0
 e118: - x322 + x326 = 0
 e119: - x322 + x327 = 0
 e120: x328 - x329 = 0
 e121: - x329 + x330 = 0
 e122: - x329 + x331 = 0
 e123: - x329 + x332 = 0
 e124: - x329 + x333 = 0
 e125: - x329 + x334 = 0
 e126: x335 - x336 = 0
 e127: - x336 + x337 = 0
 e128: - x336 + x338 = 0
 e129: - x336 + x339 = 0
 e130: - x336 + x340 = 0
 e131: - x336 + x341 = 0
 e132: x342 - x343 = 0
 e133: - x343 + x344 = 0
 e134: - x343 + x345 = 0
 e135: - x343 + x346 = 0
 e136: - x343 + x347 = 0
 e137: - x343 + x348 = 0
 e138: x349 - x350 = 0
 e139: - x350 + x351 = 0
 e140: - x350 + x352 = 0
 e141: - x350 + x353 = 0
 e142: - x350 + x354 = 0
 e143: - x350 + x355 = 0
 e144: x356 - x357 = 0
 e145: - x357 + x358 = 0
 e146: - x357 + x359 = 0
 e147: - x357 + x360 = 0
 e148: - x357 + x361 = 0
 e149: - x357 + x362 = 0
 e150: x363 - x364 = 0
 e151: - x364 + x365 = 0
 e152: - x364 + x366 = 0
 e153: - x364 + x367 = 0
 e154: - x364 + x368 = 0
 e155: - x364 + x369 = 0
 e156: x370 - x371 = 0
 e157: - x371 + x372 = 0
 e158: - x371 + x373 = 0
 e159: - x371 + x374 = 0
 e160: - x371 + x375 = 0
 e161: - x371 + x376 = 0
 e162: x377 - x378 = 0
 e163: - x378 + x379 = 0
 e164: - x378 + x380 = 0
 e165: - x378 + x381 = 0
 e166: - x378 + x382 = 0
 e167: - x378 + x383 = 0
 e168: - x2 + x272 + x278 + x284 = 0
 e169: 50 x315 - 50 x384 = 1000
 e170: 60 x322 - 60 x385 = 1000
 e171: 50 x350 - 50 x386 = 1000
 e172: 60 x357 - 60 x387 = 1000
 e173: x3 - x295 = 0
 e174: x4 - x301 = 0
 e175: x5 - x307 = 0
 e176: x329 - 0.05 x388 = 0
 e177: x336 - 0.2 x389 = 0
 e178: x343 - x390 = 0
 e179: x364 - x391 = 0
 e180: x371 - 0.1 x392 = 0
 e181: x378 - 0.05 x393 = 0
 e182: 25 x279 - 50 x384 + [ x7 * x278 + x280 * x323 + x281 * x330 + x282 * x337 + x283 * x344 ] = 0
 e183: 25 x285 - 60 x385 + [ x8 * x284 + x286 * x316 + x287 * x331 + x288 * x338 + x289 * x345 ] = 0
 e184: 37.5 x279 - 50 x386 + [ x10 * x278 + x280 * x358 + x281 * x365 + x282 * x372 + x283 * x379 ] = 
  0
 e185: 37.5 x285 - 60 x387 + [ x11 * x284 + x286 * x351 + x287 * x366 + x288 * x373 + x289 * x380 ] = 
  0
 e186: 25 x290 + [ x291 * x317 + x292 * x324 + x293 * x339 + x294 * x346 - x295 * x388 ] = 0
 e187: 25 x296 + [ x297 * x318 + x298 * x325 + x299 * x332 + x300 * x347 - x301 * x389 ] = 0
 e188: 25 x302 + [ x303 * x319 + x304 * x326 + x305 * x333 + x306 * x340 - x307 * x390 ] = 0
 e189: 25 x308 + [ - x2 * x12 + x309 * x320 + x310 * x327 + x311 * x334 + x312 * x341 + x313 * x348 ]
   = 0
 e190: 37.5 x290 + [ x291 * x352 + x292 * x359 + x293 * x374 + x294 * x381 - x295 * x391 ] = 0
 e191: 37.5 x296 + [ x297 * x353 + x298 * x360 + x299 * x367 + x300 * x382 - x301 * x392 ] = 0
 e192: 37.5 x302 + [ x303 * x354 + x304 * x361 + x305 * x368 + x306 * x375 - x307 * x393 ] = 0
 e193: 37.5 x308 + [ - x2 * x13 + x309 * x355 + x310 * x362 + x311 * x369 + x312 * x376 + x313 * x383 
  ] = 0
 e194: [ - x2 * x12 - 0.95 x295 * x388 - 0.8 x301 * x389 ] = -3000
 e195: [ - x2 * x13 - 0.9 x301 * x392 - 0.95 x307 * x393 ] = -3500
 e196: [ x6 * x272 + x273 * x314 + x274 * x321 + x275 * x328 + x276 * x335 + x277 * x342 ] = 0
 e197: [ x9 * x272 + x273 * x349 + x274 * x356 + x275 * x363 + x276 * x370 + x277 * x377 ] = 0

Bounds
 x2 <= 150
 x3 <= 150
 x4 <= 150
 x5 <= 150
 x6 <= 70
 x7 <= 70
 x8 <= 70
 x9 <= 70
 x10 <= 70
 x11 <= 70
 x12 <= 10
 x13 <= 10
 x14 <= 33.36290673
 x15 <= 33.36290673
 x16 <= 33.36290673
 x30 <= 1
 x31 <= 1
 x33 <= 1
 x34 <= 1
 x36 <= 1
 x37 <= 1
 x39 <= 1
 x40 <= 1
 x42 <= 1
 x43 <= 1
 x45 <= 1
 x46 <= 1
 x48 <= 1
 x49 <= 1
 x51 <= 1
 x52 <= 1
 x54 <= 1
 x55 <= 1
 x57 <= 1
 x58 <= 1
 x60 <= 1
 x61 <= 1
 x63 <= 1
 x64 <= 1
 x66 <= 1
 x67 <= 1
 x69 <= 1
 x70 <= 1
 x72 <= 1
 x73 <= 1
 x75 <= 1
 x76 <= 1
 x77 <= 1
 x78 <= 1
 x79 <= 1
 x80 <= 1
 x81 <= 1
 x82 <= 1
 x83 <= 1
 x84 <= 1
 x86 <= 1
 x87 <= 1
 x89 <= 1
 x90 <= 1
 x92 <= 1
 x93 <= 1
 x95 <= 1
 x96 <= 1
 x98 <= 1
 x99 <= 1
 x101 <= 1
 x102 <= 1
 x104 <= 1
 x105 <= 1
 x107 <= 1
 x108 <= 1
 x110 <= 1
 x111 <= 1
 x113 <= 1
 x114 <= 1
 x116 <= 1
 x117 <= 1
 x119 <= 1
 x120 <= 1
 x122 <= 1
 x123 <= 1
 x125 <= 1
 x126 <= 1
 x128 <= 1
 x129 <= 1
 x131 <= 1
 x132 <= 1
 x134 <= 1
 x135 <= 1
 x137 <= 1
 x138 <= 1
 x140 <= 1
 x141 <= 1
 x143 <= 1
 x144 <= 1
 x146 <= 1
 x147 <= 1
 x149 <= 1
 x150 <= 1
 x152 <= 1
 x153 <= 1
 x155 <= 1
 x156 <= 1
 x158 <= 1
 x159 <= 1
 x161 <= 1
 x162 <= 1
 x164 <= 1
 x165 <= 1
 x167 <= 1
 x168 <= 1
 x169 <= 1
 x170 <= 1
 x171 <= 1
 x172 <= 1
 x173 <= 1
 x174 <= 1
 x175 <= 1
 x176 <= 1
 x178 <= 1
 x179 <= 1
 x181 <= 1
 x182 <= 1
 x184 <= 1
 x185 <= 1
 x187 <= 1
 x188 <= 1
 x190 <= 1
 x191 <= 1
 x193 <= 1
 x194 <= 1
 x196 <= 1
 x197 <= 1
 x199 <= 1
 x200 <= 1
 x202 <= 1
 x203 <= 1
 x205 <= 1
 x206 <= 1
 x208 <= 1
 x209 <= 1
 x211 <= 1
 x212 <= 1
 x214 <= 1
 x215 <= 1
 x217 <= 1
 x218 <= 1
 x220 <= 1
 x221 <= 1
 x223 <= 1
 x224 <= 1
 x226 <= 1
 x227 <= 1
 x229 <= 1
 x230 <= 1
 x232 <= 1
 x233 <= 1
 x235 <= 1
 x236 <= 1
 x238 <= 1
 x239 <= 1
 x241 <= 1
 x242 <= 1
 x244 <= 1
 x245 <= 1
 x247 <= 1
 x248 <= 1
 x250 <= 1
 x251 <= 1
 x253 <= 1
 x254 <= 1
 x256 <= 1
 x257 <= 1
 x259 <= 1
 x260 <= 1
 x261 <= 1
 x262 <= 1
 x263 <= 1
 x264 <= 1
 x265 <= 1
 x266 <= 1
 x267 <= 1
 x268 <= 1
 x269 <= 1
 x270 <= 1
 x271 <= 1
 x272 <= 150
 x273 <= 150
 x274 <= 150
 x275 <= 150
 x276 <= 150
 x277 <= 150
 x278 <= 150
 x279 <= 150
 x280 <= 150
 x281 <= 150
 x282 <= 150
 x283 <= 150
 x284 <= 150
 x285 <= 150
 x286 <= 150
 x287 <= 150
 x288 <= 150
 x289 <= 150
 x290 <= 150
 x291 <= 150
 x292 <= 150
 x293 <= 150
 x294 <= 150
 x295 <= 150
 x296 <= 150
 x297 <= 150
 x298 <= 150
 x299 <= 150
 x300 <= 150
 x301 <= 150
 x302 <= 150
 x303 <= 150
 x304 <= 150
 x305 <= 150
 x306 <= 150
 x307 <= 150
 x308 <= 150
 x309 <= 150
 x310 <= 150
 x311 <= 150
 x312 <= 150
 x313 <= 150
 x314 <= 70
 x315 <= 70
 x316 <= 70
 x317 <= 70
 x318 <= 70
 x319 <= 70
 x320 <= 70
 x321 <= 70
 x322 <= 66.66666667
 x323 <= 70
 x324 <= 70
 x325 <= 70
 x326 <= 70
 x327 <= 70
 x328 <= 70
 x329 <= 3.5
 x330 <= 70
 x331 <= 70
 x332 <= 70
 x333 <= 70
 x334 <= 70
 x335 <= 70
 x336 <= 14
 x337 <= 70
 x338 <= 70
 x339 <= 70
 x340 <= 70
 x341 <= 70
 x342 <= 70
 x343 <= 70
 x344 <= 70
 x345 <= 70
 x346 <= 70
 x347 <= 70
 x348 <= 70
 x349 <= 70
 x350 <= 70
 x351 <= 70
 x352 <= 70
 x353 <= 70
 x354 <= 70
 x355 <= 70
 x356 <= 70
 x357 <= 66.66666667
 x358 <= 70
 x359 <= 70
 x360 <= 70
 x361 <= 70
 x362 <= 70
 x363 <= 70
 x364 <= 70
 x365 <= 70
 x366 <= 70
 x367 <= 70
 x368 <= 70
 x369 <= 70
 x370 <= 70
 x371 <= 7
 x372 <= 70
 x373 <= 70
 x374 <= 70
 x375 <= 70
 x376 <= 70
 x377 <= 70
 x378 <= 3.5
 x379 <= 70
 x380 <= 70
 x381 <= 70
 x382 <= 70
 x383 <= 70
 x384 <= 50
 x385 <= 50
 x386 <= 50
 x387 <= 50
 x388 <= 70
 x389 <= 70
 x390 <= 70
 x391 <= 70
 x392 <= 70
 x393 <= 70

Binary
 b17 b18 b19 b20 b21 b22 b23 b24 b25 b26 b27 b28 b29 b32 b35 b38 b41 b44 b47 b50 b53 b56 b59
 b62 b65 b68 b71 b74 b85 b88 b91 b94 b97 b100 b103 b106 b109 b112 b115 b118 b121 b124 b127 b130
 b133 b136 b139 b142 b145 b148 b151 b154 b157 b160 b163 b166 b177 b180 b183 b186 b189 b192 b195
 b198 b201 b204 b207 b210 b213 b216 b219 b222 b225 b228 b231 b234 b237 b240 b243 b246 b249 b252
 b255 b258

End
