\ Equation counts
\     Total        E        G        L        N        X        C        B
\        41       39        0        2        0        0        0        0
\ 
\ Variable counts
\                  x        b        i      s1s      s2s       sc       si
\     Total     cont   binary  integer     sos1     sos2    scont     sint
\        48       46        2        0        0        0        0        0
\ 
\ Nonzero counts
\     Total    const       NL      DLL
\       180       70      110        0
\ 
Minimize
 obj: - 0.0139904 x2 - 0.0661588 x3 + 0 x4 + 0 x5 + 0 x6 + 0 x7 + 0.23947 b8 + 0.75835 b9 + 0 x10 + 0 x11 
  + 0 x12 + 0 x13 + 0 x14 + 0 x15 + 0 x16 + 0 x17 + 0 x18 + 0 x19 + 0 x20 + 0 x21 + 0 x22 + 0 x23 + 0 x24 
  + 0 x25 + 0 x26 + 0 x27 + 0 x28 + 0 x29 + 0 x30 + 0 x31 + 0 x32 + 0 x33 + 0 x34 + 0 x35 + 0 x36 + 0 x37 
  + 0 x38 + 0 x39 + 0 x40 + 0 x41 + 0 x42 + 0 x43 + 0 x44 + 0 x45 + 0 x46 + 0 x47 + 0 x48 + 0 x49 + [ 
  0.0187028 x2 * x4 + 0.0154616 x2 * x5 - 0.0011438 x2 * x16 + 0.0085312 x2 * x17 + 0.0676294 x3 * x6 
  + 0.0746698 x3 * x7 + 0.0032742 x3 * x18 + 0.0577992 x3 * x19 ]/2

Subject To
 e2: x20 + x21 + x22 + x23 = 300
 e3: x24 - x25 - x26 = 0
 e4: x27 - x28 - x29 - x30 = 0
 e5: x31 - x32 - x33 - x34 = 0
 e6: x35 - x36 - x37 = 0
 e7: x38 + x39 = 1
 e8: x40 + x41 + x42 = 1
 e9: x43 + x44 + x45 = 1
 e10: x46 + x47 = 1
 e11: x16 + x17 + x48 = 1
 e12: x18 + x19 + x49 = 1
 e13: x2 - 300 b8 <= 0
 e14: x3 - 300 b9 <= 0
 e15: x10 - 0.3333333333 x20 + [ - x32 * x43 ] = 0
 e16: x11 - 0.3333333333 x20 + [ - x32 * x44 ] = 0
 e17: x12 - 0.3333333333 x20 + [ - x32 * x45 ] = 0
 e18: x13 - 0.3333333333 x21 + [ - x28 * x40 ] = 0
 e19: x14 - 0.3333333333 x21 + [ - x28 * x41 ] = 0
 e20: x15 - 0.3333333333 x21 + [ - x28 * x42 ] = 0
 e21: x10 + [ - x24 * x38 - x27 * x40 ] = 0
 e22: x11 + [ - x24 * x39 - x27 * x41 ] = 0
 e23: x12 + [ - x27 * x42 ] = 0
 e24: x13 + [ - x31 * x43 ] = 0
 e25: x14 + [ - x31 * x44 - x35 * x46 ] = 0
 e26: x15 + [ - x31 * x45 - x35 * x47 ] = 0
 e27: 0.3333333333 x22 + [ x25 * x38 + x29 * x40 + x33 * x43 ] = 80
 e28: 0.3333333333 x22 + [ x25 * x39 + x29 * x41 + x33 * x44 + x36 * x46 ] = 30
 e29: 0.3333333333 x22 + [ x29 * x42 + x33 * x45 + x36 * x47 ] = 20
 e30: 0.3333333333 x23 + [ x26 * x38 + x30 * x40 + x34 * x43 ] = 20
 e31: 0.3333333333 x23 + [ x26 * x39 + x30 * x41 + x34 * x44 + x37 * x46 ] = 70
 e32: 0.3333333333 x23 + [ x30 * x42 + x34 * x45 + x37 * x47 ] = 80
 e33: - x10 + [ x2 * x16 ] = 0
 e34: - x11 + [ x2 * x17 ] = 0
 e35: - x12 + [ x2 * x48 ] = 0
 e36: - x13 + [ x3 * x18 ] = 0
 e37: - x14 + [ x3 * x19 ] = 0
 e38: - x15 + [ x3 * x49 ] = 0
 e39: [ x4 * x10 - x24 * x38 ] = 0
 e40: [ x5 * x11 - x27 * x41 ] = 0
 e41: [ x6 * x14 - x31 * x44 ] = 0
 e42: [ x7 * x15 - x35 * x47 ] = 0

Bounds
 x2 <= 300
 x3 <= 300
 0.85 <= x4 <= 1
 0.85 <= x5 <= 1
 0.85 <= x6 <= 1
 0.85 <= x7 <= 1
 x10 <= 100
 x11 <= 100
 x12 <= 100
 x13 <= 100
 x14 <= 100
 x15 <= 100
 x16 <= 1
 x17 <= 1
 x18 <= 1
 x19 <= 1
 x20 <= 300
 x21 <= 300
 x24 <= 300
 x25 <= 300
 x26 <= 300
 x27 <= 300
 x28 <= 300
 x29 <= 300
 x30 <= 300
 x31 <= 300
 x32 <= 300
 x33 <= 300
 x34 <= 300
 x35 <= 300
 x36 <= 300
 x37 <= 300
 x38 <= 1
 x39 <= 1
 x40 <= 1
 x41 <= 1
 x42 <= 1
 x43 <= 1
 x44 <= 1
 x45 <= 1
 x46 <= 1
 x47 <= 1
 x48 <= 1
 x49 <= 1

Binary
 b8 b9

End
