\ Equation counts
\     Total        E        G        L        N        X        C        B
\        80       62       18        0        0        0        0        0
\ 
\ Variable counts
\                  x        b        i      s1s      s2s       sc       si
\     Total     cont   binary  integer     sos1     sos2    scont     sint
\       136      136        0        0        0        0        0        0
\ 
\ Nonzero counts
\     Total    const       NL      DLL
\       877      421      456        0
\ 
Minimize
 obj: x2 + x3 + x4 + x5 + x6 + x7 + x8 + x9 + x10 + x11 + x12 + x13 + x14 + x15 + x16 + x17 + x18 + x19 
  + x20 + x21 + x22 + x23 + x24 + x25 + x26 + x27 + x28 + x29 + 0 x30 + 0 x31 + 0 x32 + 0 x33 + 0 x34 
  + 0 x35 + 0 x36 + 0 x37 + 0 x38 + 0 x39 + 0 x40 + 0 x41 + 0 x42 + 0 x43 + 0 x44 + 0 x45 + 0 x46 + 0 x47 
  + 0 x48 + 0 x49 + 0 x50 + 0 x51 + 0 x52 + 0 x53 + 0 x54 + 0 x55 + 0 x56 + 0 x57 + 0 x58 + 0 x59 + 0 x60 
  + 0 x61 + 0 x62 + 0 x63 + 0 x64 + 0 x65 + 0 x66 + 0 x67 + 0 x68 + 0 x69 + 0 x70 + 0 x71 + 0 x72 + 0 x73 
  + 0 x74 + 0 x75 + 0 x76 + 0 x77 + 0 x78 + 0 x79 + 0 x80 + 0 x81 + 0 x82 + 0 x83 + 0 x84 + 0 x85 + 0 x86 
  + 0 x87 + 0 x88 + 0 x89 + 0 x90 + 0 x91 + 0 x92 + 0 x93 + 0 x94 + 0 x95 + 0 x96 + 0 x97 + 0 x98 + 0 x99 
  + 0 x100 + 0 x101 + 0 x102 + 0 x103 + 0 x104 + 0 x105 + 0 x106 + 0 x107 + 0 x108 + 0 x109 + 0 x110 
  + 0 x111 + 0 x112 + 0 x113 + 0 x114 + 0 x115 + 0 x116 + 0 x117 + 0 x118 + 0 x119 + 0 x120 + 0 x121 
  + 0 x122 + 0 x123 + 0 x124 + 0 x125 + 0 x126 + 0 x127 + 0 x128 + 0 x129 + 0 x130 + 0 x131 + 0 x132 
  + 0 x133 + 0 x134 + 0 x135 + 0 x136 + 0 x137

Subject To
 e2: - x2 - x9 - x16 - x23 + x78 - x79 - x80 - x81 - x82 - x83 - x84 - x85 = 0
 e3: - x3 - x10 - x17 - x24 + x86 - x87 - x88 - x89 - x90 - x91 - x92 - x93 = 0
 e4: - x4 - x11 - x18 - x25 + x94 - x95 - x96 - x97 - x98 - x99 - x100 - x101 = 0
 e5: - x5 - x12 - x19 - x26 + x102 - x103 - x104 - x105 - x106 - x107 - x108 - x109 = 0
 e6: - x6 - x13 - x20 - x27 - x110 - x111 - x112 - x113 - x114 - x115 - x116 = -120
 e7: - x7 - x14 - x21 - x28 - x117 - x118 - x119 - x120 - x121 - x122 - x123 = -68
 e8: - x8 - x15 - x22 - x29 - x124 - x125 - x126 - x127 - x128 - x129 - x130 = -130
 e9: x78 - x79 - x87 - x95 - x103 - x110 - x117 - x124 - x131 = 0
 e10: - x80 + x86 - x88 - x96 - x104 - x111 - x118 - x125 - x132 = 0
 e11: - x81 - x89 + x94 - x97 - x105 - x112 - x119 - x126 - x133 = 0
 e12: - x82 - x90 - x98 + x102 - x106 - x113 - x120 - x127 - x134 = 0
 e13: - x83 - x91 - x99 - x107 - x114 - x121 - x128 - x135 = -80
 e14: - x84 - x92 - x100 - x108 - x115 - x122 - x129 - x136 = -58
 e15: - x85 - x93 - x101 - x109 - x116 - x123 - x130 - x137 = -120
 e16: - 4 x2 - 4 x9 - 4 x23 - 850 x83 - 112 x84 - 491 x85 + [ x30 * x78 - x54 * x79 - x60 * x80 - x66 * x81 
  - x72 * x82 ] = 0
 e17: - 5 x2 - 6 x9 - 6 x16 - 3560 x83 - 429 x84 - 476 x85 + [ x31 * x78 - x55 * x79 - x61 * x80 - x67 * x81 
  - x73 * x82 ] = 0
 e18: - 2 x9 - 4 x16 - 2 x23 - 400 x83 - 505 x84 - 197 x85 + [ x32 * x78 - x56 * x79 - x62 * x80 - x68 * x81 
  - x74 * x82 ] = 0
 e19: - 8 x2 - 7 x9 - 5 x16 - 7 x23 - 56 x83 - 266 x84 - 493 x85 + [ x33 * x78 - x57 * x79 - x63 * x80 
  - x69 * x81 - x75 * x82 ] = 0
 e20: - 2 x9 - x16 - 2 x23 - 436 x83 - 481 x84 - 399 x85 + [ x34 * x78 - x58 * x79 - x64 * x80 - x70 * x81 
  - x76 * x82 ] = 0
 e21: - 4 x2 - x16 - 90 x83 - 505 x84 - 495 x85 + [ x35 * x78 - x59 * x79 - x65 * x80 - x71 * x81 - x77 * x82 
  ] = 0
 e22: - 4 x3 - 4 x10 - 4 x24 - 850 x91 - 112 x92 - 491 x93 + [ x36 * x86 - x54 * x87 - x60 * x88 - x66 * x89 
  - x72 * x90 ] = 0
 e23: - 5 x3 - 6 x10 - 6 x17 - 3560 x91 - 429 x92 - 476 x93 + [ x37 * x86 - x55 * x87 - x61 * x88 - x67 * x89 
  - x73 * x90 ] = 0
 e24: - 2 x10 - 4 x17 - 2 x24 - 400 x91 - 505 x92 - 197 x93 + [ x38 * x86 - x56 * x87 - x62 * x88 - x68 * x89 
  - x74 * x90 ] = 0
 e25: - 8 x3 - 7 x10 - 5 x17 - 7 x24 - 56 x91 - 266 x92 - 493 x93 + [ x39 * x86 - x57 * x87 - x63 * x88 
  - x69 * x89 - x75 * x90 ] = 0
 e26: - 2 x10 - x17 - 2 x24 - 436 x91 - 481 x92 - 399 x93 + [ x40 * x86 - x58 * x87 - x64 * x88 - x70 * x89 
  - x76 * x90 ] = 0
 e27: - 4 x3 - x17 - 90 x91 - 505 x92 - 495 x93 + [ x41 * x86 - x59 * x87 - x65 * x88 - x71 * x89 - x77 * x90 
  ] = 0
 e28: - 4 x4 - 4 x11 - 4 x25 - 850 x99 - 112 x100 - 491 x101 + [ x42 * x94 - x54 * x95 - x60 * x96 - x66 * x97 
  - x72 * x98 ] = 0
 e29: - 5 x4 - 6 x11 - 6 x18 - 3560 x99 - 429 x100 - 476 x101 + [ x43 * x94 - x55 * x95 - x61 * x96 - x67 * x97 
  - x73 * x98 ] = 0
 e30: - 2 x11 - 4 x18 - 2 x25 - 400 x99 - 505 x100 - 197 x101 + [ x44 * x94 - x56 * x95 - x62 * x96 - x68 * x97 
  - x74 * x98 ] = 0
 e31: - 8 x4 - 7 x11 - 5 x18 - 7 x25 - 56 x99 - 266 x100 - 493 x101 + [ x45 * x94 - x57 * x95 - x63 * x96 
  - x69 * x97 - x75 * x98 ] = 0
 e32: - 2 x11 - x18 - 2 x25 - 436 x99 - 481 x100 - 399 x101 + [ x46 * x94 - x58 * x95 - x64 * x96 - x70 * x97 
  - x76 * x98 ] = 0
 e33: - 4 x4 - x18 - 90 x99 - 505 x100 - 495 x101 + [ x47 * x94 - x59 * x95 - x65 * x96 - x71 * x97 - x77 * x98 
  ] = 0
 e34: - 4 x5 - 4 x12 - 4 x26 - 850 x107 - 112 x108 - 491 x109 + [ x48 * x102 - x54 * x103 - x60 * x104 
  - x66 * x105 - x72 * x106 ] = 0
 e35: - 5 x5 - 6 x12 - 6 x19 - 3560 x107 - 429 x108 - 476 x109 + [ x49 * x102 - x55 * x103 - x61 * x104 
  - x67 * x105 - x73 * x106 ] = 0
 e36: - 2 x12 - 4 x19 - 2 x26 - 400 x107 - 505 x108 - 197 x109 + [ x50 * x102 - x56 * x103 - x62 * x104 
  - x68 * x105 - x74 * x106 ] = 0
 e37: - 8 x5 - 7 x12 - 5 x19 - 7 x26 - 56 x107 - 266 x108 - 493 x109 + [ x51 * x102 - x57 * x103 - x63 * x104 
  - x69 * x105 - x75 * x106 ] = 0
 e38: - 2 x12 - x19 - 2 x26 - 436 x107 - 481 x108 - 399 x109 + [ x52 * x102 - x58 * x103 - x64 * x104 
  - x70 * x105 - x76 * x106 ] = 0
 e39: - 4 x5 - x19 - 90 x107 - 505 x108 - 495 x109 + [ x53 * x102 - x59 * x103 - x65 * x104 - x71 * x105 
  - x77 * x106 ] = 0
 e40: - 4 x6 - 4 x13 - 4 x27 - 850 x114 - 112 x115 - 491 x116 + [ - x54 * x110 - x60 * x111 - x66 * x112 
  - x72 * x113 ] >= -42000
 e41: - 5 x6 - 6 x13 - 6 x20 - 3560 x114 - 429 x115 - 476 x116 + [ - x55 * x110 - x61 * x111 - x67 * x112 
  - x73 * x113 ] >= -5760
 e42: - 2 x13 - 4 x20 - 2 x27 - 400 x114 - 505 x115 - 197 x116 + [ - x56 * x110 - x62 * x111 - x68 * x112 
  - x74 * x113 ] >= -31200
 e43: - 8 x6 - 7 x13 - 5 x20 - 7 x27 - 56 x114 - 266 x115 - 493 x116 + [ - x57 * x110 - x63 * x111 - x69 * x112 
  - x75 * x113 ] >= -2520
 e44: - 2 x13 - x20 - 2 x27 - 436 x114 - 481 x115 - 399 x116 + [ - x58 * x110 - x64 * x111 - x70 * x112 
  - x76 * x113 ] >= -33360
 e45: - 4 x6 - x20 - 90 x114 - 505 x115 - 495 x116 + [ - x59 * x110 - x65 * x111 - x71 * x112 - x77 * x113 
  ] >= -1440
 e46: - 4 x7 - 4 x14 - 4 x28 - 850 x121 - 112 x122 - 491 x123 + [ - x54 * x117 - x60 * x118 - x66 * x119 
  - x72 * x120 ] >= -2924
 e47: - 5 x7 - 6 x14 - 6 x21 - 3560 x121 - 429 x122 - 476 x123 + [ - x55 * x117 - x61 * x118 - x67 * x119 
  - x73 * x120 ] >= -23256
 e48: - 2 x14 - 4 x21 - 2 x28 - 400 x121 - 505 x122 - 197 x123 + [ - x56 * x117 - x62 * x118 - x68 * x119 
  - x74 * x120 ] >= -15776
 e49: - 8 x7 - 7 x14 - 5 x21 - 7 x28 - 56 x121 - 266 x122 - 493 x123 + [ - x57 * x117 - x63 * x118 - x69 * x119 
  - x75 * x120 ] >= -18020
 e50: - 2 x14 - x21 - 2 x28 - 436 x121 - 481 x122 - 399 x123 + [ - x58 * x117 - x64 * x118 - x70 * x119 
  - x76 * x120 ] >= -26724
 e51: - 4 x7 - x21 - 90 x121 - 505 x122 - 495 x123 + [ - x59 * x117 - x65 * x118 - x71 * x119 - x77 * x120 
  ] >= -20332
 e52: - 4 x8 - 4 x15 - 4 x29 - 850 x128 - 112 x129 - 491 x130 + [ - x54 * x124 - x60 * x125 - x66 * x126 
  - x72 * x127 ] >= -58760
 e53: - 5 x8 - 6 x15 - 6 x22 - 3560 x128 - 429 x129 - 476 x130 + [ - x55 * x124 - x61 * x125 - x67 * x126 
  - x73 * x127 ] >= -8320
 e54: - 2 x15 - 4 x22 - 2 x29 - 400 x128 - 505 x129 - 197 x130 + [ - x56 * x124 - x62 * x125 - x68 * x126 
  - x74 * x127 ] >= -1300
 e55: - 8 x8 - 7 x15 - 5 x22 - 7 x29 - 56 x128 - 266 x129 - 493 x130 + [ - x57 * x124 - x63 * x125 - x69 * x126 
  - x75 * x127 ] >= -43420
 e56: - 2 x15 - x22 - 2 x29 - 436 x128 - 481 x129 - 399 x130 + [ - x58 * x124 - x64 * x125 - x70 * x126 
  - x76 * x127 ] >= -18590
 e57: - 4 x8 - x22 - 90 x128 - 505 x129 - 495 x130 + [ - x59 * x124 - x65 * x125 - x71 * x126 - x77 * x127 
  ] >= -31720
 e58: [ x30 * x78 - x54 * x78 ] = -6016
 e59: [ x31 * x78 - x55 * x78 ] = -22272
 e60: [ x32 * x78 - x56 * x78 ] = -15744
 e61: [ x33 * x78 - x57 * x78 ] = -256
 e62: [ x34 * x78 - x58 * x78 ] = -10752
 e63: [ x35 * x78 - x59 * x78 ] = -6400
 e64: [ x36 * x86 - x60 * x86 ] = -4250
 e65: [ x37 * x86 - x61 * x86 ] = -3230
 e66: [ x38 * x86 - x62 * x86 ] = -1870
 e67: [ x39 * x86 - x63 * x86 ] = -84796
 e68: [ x40 * x86 - x64 * x86 ] = -884
 e69: [ x41 * x86 - x65 * x86 ] = -3332
 e70: [ x42 * x94 - x66 * x94 ] = -10080
 e71: [ x43 * x94 - x67 * x94 ] = -4914
 e72: [ x44 * x94 - x68 * x94 ] = -46242
 e73: [ x45 * x94 - x69 * x94 ] = -5418
 e74: [ x46 * x94 - x70 * x94 ] = -16506
 e75: [ x47 * x94 - x71 * x94 ] = -4284
 e76: [ x48 * x102 - x72 * x102 ] = -3456
 e77: [ x49 * x102 - x73 * x102 ] = -43776
 e78: [ x50 * x102 - x74 * x102 ] = -39040
 e79: [ x51 * x102 - x75 * x102 ] = -52224
 e80: [ x52 * x102 - x76 * x102 ] = -17280
 e81: [ x53 * x102 - x77 * x102 ] = -27008

Bounds
 x2 <= 100000
 x3 <= 100000
 x4 <= 100000
 x5 <= 100000
 x6 <= 100000
 x7 <= 100000
 x8 <= 100000
 x9 <= 100000
 x10 <= 100000
 x11 <= 100000
 x12 <= 100000
 x13 <= 100000
 x14 <= 100000
 x15 <= 100000
 x16 <= 100000
 x17 <= 100000
 x18 <= 100000
 x19 <= 100000
 x20 <= 100000
 x21 <= 100000
 x22 <= 100000
 x23 <= 100000
 x24 <= 100000
 x25 <= 100000
 x26 <= 100000
 x27 <= 100000
 x28 <= 100000
 x29 <= 100000
 x30 <= 45
 x31 <= 52
 x32 <= 189
 x33 <= 33
 x34 <= 210
 x35 <= 24
 x36 <= 120
 x37 <= 30
 x38 <= 30
 x39 <= 12234
 x40 <= 98
 x41 <= 656
 x42 <= 142
 x43 <= 420
 x44 <= 200
 x45 <= 13
 x46 <= 637
 x47 <= 24
 x48 <= 20
 x49 <= 25
 x50 <= 15
 x51 <= 25
 x52 <= 454
 x53 <= 256
 x54 <= 139
 x55 <= 400
 x56 <= 435
 x57 <= 37
 x58 <= 378
 x59 <= 124
 x60 <= 245
 x61 <= 125
 x62 <= 85
 x63 <= 14728
 x64 <= 124
 x65 <= 754
 x66 <= 222
 x67 <= 459
 x68 <= 567
 x69 <= 56
 x70 <= 768
 x71 <= 58
 x72 <= 47
 x73 <= 367
 x74 <= 320
 x75 <= 433
 x76 <= 589
 x77 <= 467
 x78 <= 64
 x79 <= 100000
 x80 <= 100000
 x81 <= 100000
 x82 <= 100000
 x83 <= 100000
 x84 <= 100000
 x85 <= 100000
 x86 <= 34
 x87 <= 100000
 x88 <= 100000
 x89 <= 100000
 x90 <= 100000
 x91 <= 100000
 x92 <= 100000
 x93 <= 100000
 x94 <= 126
 x95 <= 100000
 x96 <= 100000
 x97 <= 100000
 x98 <= 100000
 x99 <= 100000
 x100 <= 100000
 x101 <= 100000
 x102 <= 128
 x103 <= 100000
 x104 <= 100000
 x105 <= 100000
 x106 <= 100000
 x107 <= 100000
 x108 <= 100000
 x109 <= 100000
 x110 <= 100000
 x111 <= 100000
 x112 <= 100000
 x113 <= 100000
 x114 <= 100000
 x115 <= 100000
 x116 <= 100000
 x117 <= 100000
 x118 <= 100000
 x119 <= 100000
 x120 <= 100000
 x121 <= 100000
 x122 <= 100000
 x123 <= 100000
 x124 <= 100000
 x125 <= 100000
 x126 <= 100000
 x127 <= 100000
 x128 <= 100000
 x129 <= 100000
 x130 <= 100000
 x131 <= 100000
 x132 <= 100000
 x133 <= 100000
 x134 <= 100000
 x135 <= 100000
 x136 <= 100000
 x137 <= 100000

End
