\ Equation counts
\     Total        E        G        L        N        X        C        B
\       387       47       32      308        0        0        0        0
\ 
\ Variable counts
\                  x        b        i      s1s      s2s       sc       si
\     Total     cont   binary  integer     sos1     sos2    scont     sint
\       187      117       70        0        0        0        0        0
\ 
\ Nonzero counts
\     Total    const       NL      DLL
\      1318     1074      244        0
\ 
Maximize
 obj: - 0.33 x2 - 0.33 x3 - 0.33 x4 - 0.37 x5 - 0.37 x6 - 0.37 x7 - 0.76 x8 - 0.76 x9 - 0.76 x10 - 1.18 x11 
  - 1.18 x12 - 1.18 x13 - 1.06 x14 - 1.06 x15 - 1.06 x16 - 0.58 x17 - 0.58 x18 - 0.58 x19 + 5.48 x20 
  + 5.48 x21 + 5.48 x22 - 0.23 x23 - 0.23 x24 - 0.23 x25 - 0.58 x26 - 0.58 x27 - 0.58 x28 - 0.29 x29 
  - 0.29 x30 - 0.29 x31 + 7.83 x32 + 7.83 x33 + 4.82 x34 + 4.82 x35 - 0.34 x36 - 0.34 x37 - 0.34 x38 
  - 0.11 x39 - 0.11 x40 - 0.11 x41 + 7.22 x42 + 7.22 x43 + 5.54 x44 + 5.54 x45 - 0.02 x46 - 0.02 x47 
  - 0.02 x48 - 0.31 x49 - 0.31 x50 - 0.31 x51 - 0.18 x52 - 0.18 x53 - 0.18 x54 + 8.01 x55 + 8.01 x56 
  + 5.33 x57 + 5.33 x58 - 0.7 x59 - 0.7 x60 - 0.7 x61 - 0.03 x62 - 0.03 x63 - 0.03 x64 - 0.32 x65 - 0.32 x66 
  - 0.32 x67 + 7.45 x68 + 7.45 x69 + 4.98 x70 + 4.98 x71 + 0 x72 + 0 x73 + 0 x74 + 0 x75 + 0 x76 + 0 x77 
  + 0 x78 + 0 x79 - 0.18 b80 - 0.18 b81 - 0.18 b82 - b83 - b84 - b85 - 0.03 b86 - 0.03 b87 - 0.03 b88 
  - 0.46 b89 - 0.46 b90 - 0.46 b91 - 0.16 b92 - 0.16 b93 - 0.16 b94 - 0.64 b95 - 0.64 b96 - 0.64 b97 
  - 0.48 b98 - 0.48 b99 - 0.48 b100 - 0.59 b101 - 0.59 b102 - 0.59 b103 - 0.38 b104 - 0.38 b105 - 0.38 b106 
  - 0.25 b107 - 0.25 b108 - 0.25 b109 - 0.62 b110 - 0.62 b111 - 0.82 b112 - 0.82 b113 - 0.73 b114 - 0.73 b115 
  - 0.73 b116 - 0.58 b117 - 0.58 b118 - 0.58 b119 - 0.91 b120 - 0.91 b121 - 0.82 b122 - 0.82 b123 - 0.59 b124 
  - 0.59 b125 - 0.59 b126 - 0.43 b127 - 0.43 b128 - 0.43 b129 - 0.16 b130 - 0.16 b131 - 0.16 b132 - 0.42 b133 
  - 0.42 b134 - 0.6 b135 - 0.6 b136 - 0.7 b137 - 0.7 b138 - 0.7 b139 - 0.64 b140 - 0.64 b141 - 0.64 b142 
  - 0.07 b143 - 0.07 b144 - 0.07 b145 - 0.53 b146 - 0.53 b147 - 0.41 b148 - 0.41 b149 + 0 x150 + 0 x151 
  + 0 x152 + 0 x153 + 0 x154 + 0 x155 + 0 x156 + 0 x157 + 0 x158 + 0 x159 + 0 x160 + 0 x161 + 0 x162 
  + 0 x163 + 0 x164 + 0 x165 + 0 x166 + 0 x167 + 0 x168 + 0 x169 + 0 x170 + 0 x171 + 0 x172 + 0 x173 
  + 0 x174 + 0 x175 + 0 x176 + 0 x177 + 0 x178 + 0 x179 + 0 x180 + 0 x181 + 0 x182 + 0 x183 + 0 x184 
  + 0 x185 + 0 x186 + 0 x187 + 0 x188

Subject To
 e2: x2 + x5 + x8 + x150 = 1.1
 e3: x11 + x14 + x17 + x20 + x151 = 2.1
 e4: - x11 + x23 + x26 + x29 - x36 - x46 - x59 + x152 = 1
 e5: - x2 - x14 - x23 + x36 + x39 - x49 - x62 + x153 = 1
 e6: - x5 - x26 + x46 + x49 + x52 - x65 + x154 = 1.8
 e7: - x8 - x17 - x29 - x39 - x52 + x59 + x62 + x65 + x155 = 1.2
 e8: - x20 + x156 = 1.57
 e9: x3 + x6 + x9 - x150 + x157 = 0.8
 e10: x4 + x7 + x10 - x157 + x158 = 0.4
 e11: x12 + x15 + x18 + x21 - x151 + x159 = 0.5
 e12: x13 + x16 + x19 + x22 - x159 + x160 = 0.8
 e13: - x12 + x24 + x27 + x30 + x32 + x34 - x37 - x47 - x60 - x152 + x161 = 0
 e14: - x13 + x25 + x28 + x31 + x33 + x35 - x38 - x48 - x61 - x161 + x162 = 0
 e15: - x3 - x15 - x24 + x37 + x40 + x42 + x44 - x50 - x63 - x153 + x163 = 0
 e16: - x4 - x16 - x25 + x38 + x41 + x43 + x45 - x51 - x64 - x163 + x164 = 0
 e17: - x6 - x27 + x47 + x50 + x53 + x55 + x57 - x66 - x154 + x165 = 0
 e18: - x7 - x28 + x48 + x51 + x54 + x56 + x58 - x67 - x165 + x166 = 0
 e19: - x9 - x18 - x30 - x40 - x53 + x60 + x63 + x66 + x68 + x70 - x155 + x167 = 0
 e20: - x10 - x19 - x31 - x41 - x54 + x61 + x64 + x67 + x69 + x71 - x167 + x168 = 0
 e21: - x32 - x42 - x55 - x68 + x169 = 0.95
 e22: - x33 - x43 - x56 - x69 - x169 + x170 = -0.83
 e23: - x21 - x34 - x44 - x57 - x70 - x156 + x171 = -0.39
 e24: - x22 - x35 - x45 - x58 - x71 - x171 + x172 = -0.8
 e25: x2 - b80 <= 0
 e26: x3 - b81 <= 0
 e27: x4 - b82 <= 0
 e28: x5 - b83 <= 0
 e29: x6 - b84 <= 0
 e30: x7 - b85 <= 0
 e31: x8 - b86 <= 0
 e32: x9 - b87 <= 0
 e33: x10 - b88 <= 0
 e34: x11 - b89 <= 0
 e35: x12 - b90 <= 0
 e36: x13 - b91 <= 0
 e37: x14 - b92 <= 0
 e38: x15 - b93 <= 0
 e39: x16 - b94 <= 0
 e40: x17 - b95 <= 0
 e41: x18 - b96 <= 0
 e42: x19 - b97 <= 0
 e43: x20 - b98 <= 0
 e44: x21 - b99 <= 0
 e45: x22 - b100 <= 0
 e46: x23 - b101 <= 0
 e47: x24 - b102 <= 0
 e48: x25 - b103 <= 0
 e49: x26 - b104 <= 0
 e50: x27 - b105 <= 0
 e51: x28 - b106 <= 0
 e52: x29 - b107 <= 0
 e53: x30 - b108 <= 0
 e54: x31 - b109 <= 0
 e55: x32 - b110 <= 0
 e56: x33 - b111 <= 0
 e57: x34 - b112 <= 0
 e58: x35 - b113 <= 0
 e59: x36 - b114 <= 0
 e60: x37 - b115 <= 0
 e61: x38 - b116 <= 0
 e62: x39 - b117 <= 0
 e63: x40 - b118 <= 0
 e64: x41 - b119 <= 0
 e65: x42 - b120 <= 0
 e66: x43 - b121 <= 0
 e67: x44 - b122 <= 0
 e68: x45 - b123 <= 0
 e69: x46 - b124 <= 0
 e70: x47 - b125 <= 0
 e71: x48 - b126 <= 0
 e72: x49 - b127 <= 0
 e73: x50 - b128 <= 0
 e74: x51 - b129 <= 0
 e75: x52 - b130 <= 0
 e76: x53 - b131 <= 0
 e77: x54 - b132 <= 0
 e78: x55 - b133 <= 0
 e79: x56 - b134 <= 0
 e80: x57 - b135 <= 0
 e81: x58 - b136 <= 0
 e82: x59 - b137 <= 0
 e83: x60 - b138 <= 0
 e84: x61 - b139 <= 0
 e85: x62 - b140 <= 0
 e86: x63 - b141 <= 0
 e87: x64 - b142 <= 0
 e88: x65 - b143 <= 0
 e89: x66 - b144 <= 0
 e90: x67 - b145 <= 0
 e91: x68 - b146 <= 0
 e92: x69 - b147 <= 0
 e93: x70 - b148 <= 0
 e94: x71 - b149 <= 0
 e95: b110 - x173 <= 0.1
 e96: b111 - x174 <= 0.1
 e97: b112 - x173 <= 0.5
 e98: b113 - x174 <= 0.5
 e99: b120 - x175 <= 0.1
 e100: b121 - x176 <= 0.1
 e101: b122 - x175 <= 0.5
 e102: b123 - x176 <= 0.5
 e103: b133 - x177 <= 0.1
 e104: b134 - x178 <= 0.1
 e105: b135 - x177 <= 0.5
 e106: b136 - x178 <= 0.5
 e107: b146 - x179 <= 0.1
 e108: b147 - x180 <= 0.1
 e109: b148 - x179 <= 0.5
 e110: b149 - x180 <= 0.5
 e111: b110 - x181 <= 1
 e112: b111 - x182 <= 1
 e113: b112 - x181 <= 0.8
 e114: b113 - x182 <= 0.8
 e115: b120 - x183 <= 1
 e116: b121 - x184 <= 1
 e117: b122 - x183 <= 0.8
 e118: b123 - x184 <= 0.8
 e119: b133 - x185 <= 1
 e120: b134 - x186 <= 1
 e121: b135 - x185 <= 0.8
 e122: b136 - x186 <= 0.8
 e123: b146 - x187 <= 1
 e124: b147 - x188 <= 1
 e125: b148 - x187 <= 0.8
 e126: b149 - x188 <= 0.8
 e127: - b110 - x173 >= -2
 e128: - b111 - x174 >= -2
 e129: - b112 - x173 >= -1.9
 e130: - b113 - x174 >= -1.9
 e131: - b120 - x175 >= -2
 e132: - b121 - x176 >= -2
 e133: - b122 - x175 >= -1.9
 e134: - b123 - x176 >= -1.9
 e135: - b133 - x177 >= -2
 e136: - b134 - x178 >= -2
 e137: - b135 - x177 >= -1.9
 e138: - b136 - x178 >= -1.9
 e139: - b146 - x179 >= -2
 e140: - b147 - x180 >= -2
 e141: - b148 - x179 >= -1.9
 e142: - b149 - x180 >= -1.9
 e143: - b110 - x181 >= -1.5
 e144: - b111 - x182 >= -1.5
 e145: - b112 - x181 >= -1.6
 e146: - b113 - x182 >= -1.6
 e147: - b120 - x183 >= -1.5
 e148: - b121 - x184 >= -1.5
 e149: - b122 - x183 >= -1.6
 e150: - b123 - x184 >= -1.6
 e151: - b133 - x185 >= -1.5
 e152: - b134 - x186 >= -1.5
 e153: - b135 - x185 >= -1.6
 e154: - b136 - x186 >= -1.6
 e155: - b146 - x187 >= -1.5
 e156: - b147 - x188 >= -1.5
 e157: - b148 - x187 >= -1.6
 e158: - b149 - x188 >= -1.6
 e159: b89 + b101 <= 1
 e160: b90 + b102 <= 1
 e161: b91 + b103 <= 1
 e162: b89 + b104 <= 1
 e163: b90 + b105 <= 1
 e164: b91 + b106 <= 1
 e165: b89 + b107 <= 1
 e166: b90 + b108 <= 1
 e167: b91 + b109 <= 1
 e168: b90 + b110 <= 1
 e169: b91 + b111 <= 1
 e170: b90 + b112 <= 1
 e171: b91 + b113 <= 1
 e172: b101 + b114 <= 1
 e173: b102 + b115 <= 1
 e174: b103 + b116 <= 1
 e175: b104 + b114 <= 1
 e176: b105 + b115 <= 1
 e177: b106 + b116 <= 1
 e178: b107 + b114 <= 1
 e179: b108 + b115 <= 1
 e180: b109 + b116 <= 1
 e181: b110 + b115 <= 1
 e182: b111 + b116 <= 1
 e183: b112 + b115 <= 1
 e184: b113 + b116 <= 1
 e185: b101 + b124 <= 1
 e186: b102 + b125 <= 1
 e187: b103 + b126 <= 1
 e188: b104 + b124 <= 1
 e189: b105 + b125 <= 1
 e190: b106 + b126 <= 1
 e191: b107 + b124 <= 1
 e192: b108 + b125 <= 1
 e193: b109 + b126 <= 1
 e194: b110 + b125 <= 1
 e195: b111 + b126 <= 1
 e196: b112 + b125 <= 1
 e197: b113 + b126 <= 1
 e198: b101 + b137 <= 1
 e199: b102 + b138 <= 1
 e200: b103 + b139 <= 1
 e201: b104 + b137 <= 1
 e202: b105 + b138 <= 1
 e203: b106 + b139 <= 1
 e204: b107 + b137 <= 1
 e205: b108 + b138 <= 1
 e206: b109 + b139 <= 1
 e207: b110 + b138 <= 1
 e208: b111 + b139 <= 1
 e209: b112 + b138 <= 1
 e210: b113 + b139 <= 1
 e211: b80 + b114 <= 1
 e212: b81 + b115 <= 1
 e213: b82 + b116 <= 1
 e214: b80 + b117 <= 1
 e215: b81 + b118 <= 1
 e216: b82 + b119 <= 1
 e217: b81 + b120 <= 1
 e218: b82 + b121 <= 1
 e219: b81 + b122 <= 1
 e220: b82 + b123 <= 1
 e221: b92 + b114 <= 1
 e222: b93 + b115 <= 1
 e223: b94 + b116 <= 1
 e224: b92 + b117 <= 1
 e225: b93 + b118 <= 1
 e226: b94 + b119 <= 1
 e227: b93 + b120 <= 1
 e228: b94 + b121 <= 1
 e229: b93 + b122 <= 1
 e230: b94 + b123 <= 1
 e231: b101 + b114 <= 1
 e232: b102 + b115 <= 1
 e233: b103 + b116 <= 1
 e234: b101 + b117 <= 1
 e235: b102 + b118 <= 1
 e236: b103 + b119 <= 1
 e237: b102 + b120 <= 1
 e238: b103 + b121 <= 1
 e239: b102 + b122 <= 1
 e240: b103 + b123 <= 1
 e241: b114 + b127 <= 1
 e242: b115 + b128 <= 1
 e243: b116 + b129 <= 1
 e244: b117 + b127 <= 1
 e245: b118 + b128 <= 1
 e246: b119 + b129 <= 1
 e247: b120 + b128 <= 1
 e248: b121 + b129 <= 1
 e249: b122 + b128 <= 1
 e250: b123 + b129 <= 1
 e251: b114 + b140 <= 1
 e252: b115 + b141 <= 1
 e253: b116 + b142 <= 1
 e254: b117 + b140 <= 1
 e255: b118 + b141 <= 1
 e256: b119 + b142 <= 1
 e257: b120 + b141 <= 1
 e258: b121 + b142 <= 1
 e259: b122 + b141 <= 1
 e260: b123 + b142 <= 1
 e261: b83 + b124 <= 1
 e262: b84 + b125 <= 1
 e263: b85 + b126 <= 1
 e264: b83 + b127 <= 1
 e265: b84 + b128 <= 1
 e266: b85 + b129 <= 1
 e267: b83 + b130 <= 1
 e268: b84 + b131 <= 1
 e269: b85 + b132 <= 1
 e270: b84 + b133 <= 1
 e271: b85 + b134 <= 1
 e272: b84 + b135 <= 1
 e273: b85 + b136 <= 1
 e274: b104 + b124 <= 1
 e275: b105 + b125 <= 1
 e276: b106 + b126 <= 1
 e277: b104 + b127 <= 1
 e278: b105 + b128 <= 1
 e279: b106 + b129 <= 1
 e280: b104 + b130 <= 1
 e281: b105 + b131 <= 1
 e282: b106 + b132 <= 1
 e283: b105 + b133 <= 1
 e284: b106 + b134 <= 1
 e285: b105 + b135 <= 1
 e286: b106 + b136 <= 1
 e287: b124 + b143 <= 1
 e288: b125 + b144 <= 1
 e289: b126 + b145 <= 1
 e290: b127 + b143 <= 1
 e291: b128 + b144 <= 1
 e292: b129 + b145 <= 1
 e293: b130 + b143 <= 1
 e294: b131 + b144 <= 1
 e295: b132 + b145 <= 1
 e296: b133 + b144 <= 1
 e297: b134 + b145 <= 1
 e298: b135 + b144 <= 1
 e299: b136 + b145 <= 1
 e300: b86 + b137 <= 1
 e301: b87 + b138 <= 1
 e302: b88 + b139 <= 1
 e303: b86 + b140 <= 1
 e304: b87 + b141 <= 1
 e305: b88 + b142 <= 1
 e306: b86 + b143 <= 1
 e307: b87 + b144 <= 1
 e308: b88 + b145 <= 1
 e309: b87 + b146 <= 1
 e310: b88 + b147 <= 1
 e311: b87 + b148 <= 1
 e312: b88 + b149 <= 1
 e313: b95 + b137 <= 1
 e314: b96 + b138 <= 1
 e315: b97 + b139 <= 1
 e316: b95 + b140 <= 1
 e317: b96 + b141 <= 1
 e318: b97 + b142 <= 1
 e319: b95 + b143 <= 1
 e320: b96 + b144 <= 1
 e321: b97 + b145 <= 1
 e322: b96 + b146 <= 1
 e323: b97 + b147 <= 1
 e324: b96 + b148 <= 1
 e325: b97 + b149 <= 1
 e326: b107 + b137 <= 1
 e327: b108 + b138 <= 1
 e328: b109 + b139 <= 1
 e329: b107 + b140 <= 1
 e330: b108 + b141 <= 1
 e331: b109 + b142 <= 1
 e332: b107 + b143 <= 1
 e333: b108 + b144 <= 1
 e334: b109 + b145 <= 1
 e335: b108 + b146 <= 1
 e336: b109 + b147 <= 1
 e337: b108 + b148 <= 1
 e338: b109 + b149 <= 1
 e339: b117 + b137 <= 1
 e340: b118 + b138 <= 1
 e341: b119 + b139 <= 1
 e342: b117 + b140 <= 1
 e343: b118 + b141 <= 1
 e344: b119 + b142 <= 1
 e345: b117 + b143 <= 1
 e346: b118 + b144 <= 1
 e347: b119 + b145 <= 1
 e348: b118 + b146 <= 1
 e349: b119 + b147 <= 1
 e350: b118 + b148 <= 1
 e351: b119 + b149 <= 1
 e352: b130 + b137 <= 1
 e353: b131 + b138 <= 1
 e354: b132 + b139 <= 1
 e355: b130 + b140 <= 1
 e356: b131 + b141 <= 1
 e357: b132 + b142 <= 1
 e358: b130 + b143 <= 1
 e359: b131 + b144 <= 1
 e360: b132 + b145 <= 1
 e361: b131 + b146 <= 1
 e362: b132 + b147 <= 1
 e363: b131 + b148 <= 1
 e364: b132 + b149 <= 1
 e365: - 0.7 x11 + 0.1 x23 + 0.1 x26 + 0.1 x29 - 0.5 x46 - 0.8 x59 + [ x152 * x173 ] = 0.1
 e366: - 0.7 x2 - 0.7 x14 - 0.1 x23 - 0.5 x49 - 0.8 x62 + [ x153 * x175 ] = 0
 e367: - 0.7 x5 - 0.1 x26 + 0.5 x46 + 0.5 x49 + 0.5 x52 - 0.8 x65 + [ x154 * x177 ] = 0.9
 e368: - 0.7 x8 - 0.7 x17 - 0.1 x29 - 0.5 x52 + 0.8 x59 + 0.8 x62 + 0.8 x65 + [ x155 * x179 ] = 0.96
 e369: - 0.5 x11 + 0.7 x23 + 0.7 x26 + 0.7 x29 - 0.1 x36 - 0.1 x46 - 0.8 x59 + [ x152 * x181 ] = 0.7
 e370: - 0.1 x2 - 0.5 x14 - 0.7 x23 + 0.1 x36 + 0.1 x39 - 0.1 x49 - 0.8 x62 + [ x153 * x183 ] = 0.1
 e371: - 0.1 x5 - 0.7 x26 + 0.1 x46 + 0.1 x49 + 0.1 x52 - 0.8 x65 + [ x154 * x185 ] = 0.18
 e372: - 0.1 x8 - 0.5 x17 - 0.7 x29 - 0.1 x39 - 0.1 x52 + 0.8 x59 + 0.8 x62 + 0.8 x65 + [ x155 * x187 
  ] = 0.96
 e373: - 0.7 x12 + [ x24 * x173 + x27 * x173 + x30 * x173 + x32 * x173 + x34 * x173 - x37 * x175 - x47 * x177 
  - x60 * x179 - x152 * x173 + x161 * x174 ] = 0
 e374: - 0.7 x13 + [ x25 * x174 + x28 * x174 + x31 * x174 + x33 * x174 + x35 * x174 - x38 * x176 - x48 * x178 
  - x61 * x180 + x72 * x162 - x161 * x174 ] = 0
 e375: - 0.7 x3 - 0.7 x15 + [ - x24 * x173 + x37 * x175 + x40 * x175 + x42 * x175 + x44 * x175 - x50 * x177 
  - x63 * x179 - x153 * x175 + x163 * x176 ] = 0
 e376: - 0.7 x4 - 0.7 x16 + [ - x25 * x174 + x38 * x176 + x41 * x176 + x43 * x176 + x45 * x176 - x51 * x178 
  - x64 * x180 + x73 * x164 - x163 * x176 ] = 0
 e377: - 0.7 x6 + [ - x27 * x173 + x47 * x177 + x50 * x177 + x53 * x177 + x55 * x177 + x57 * x177 - x66 * x179 
  - x154 * x177 + x165 * x178 ] = 0
 e378: - 0.7 x7 + [ - x28 * x174 + x48 * x178 + x51 * x178 + x54 * x178 + x56 * x178 + x58 * x178 - x67 * x180 
  + x74 * x166 - x165 * x178 ] = 0
 e379: - 0.7 x9 - 0.7 x18 + [ - x30 * x173 - x40 * x175 - x53 * x177 + x60 * x179 + x63 * x179 + x66 * x179 
  + x68 * x179 + x70 * x179 - x155 * x179 + x167 * x180 ] = 0
 e380: - 0.7 x10 - 0.7 x19 + [ - x31 * x174 - x41 * x176 - x54 * x178 + x61 * x180 + x64 * x180 + x67 * x180 
  + x69 * x180 + x71 * x180 + x75 * x168 - x167 * x180 ] = 0
 e381: - 0.5 x12 + [ x24 * x181 + x27 * x181 + x30 * x181 + x32 * x181 + x34 * x181 - x37 * x183 - x47 * x185 
  - x60 * x187 - x152 * x181 + x161 * x182 ] = 0
 e382: - 0.5 x13 + [ x25 * x182 + x28 * x182 + x31 * x182 + x33 * x182 + x35 * x182 - x38 * x184 - x48 * x186 
  - x61 * x188 + x76 * x162 - x161 * x182 ] = 0
 e383: - 0.1 x3 - 0.5 x15 + [ - x24 * x181 + x37 * x183 + x40 * x183 + x42 * x183 + x44 * x183 - x50 * x185 
  - x63 * x187 - x153 * x183 + x163 * x184 ] = 0
 e384: - 0.1 x4 - 0.5 x16 + [ - x25 * x182 + x38 * x184 + x41 * x184 + x43 * x184 + x45 * x184 - x51 * x186 
  - x64 * x188 + x77 * x164 - x163 * x184 ] = 0
 e385: - 0.1 x6 + [ - x27 * x181 + x47 * x185 + x50 * x185 + x53 * x185 + x55 * x185 + x57 * x185 - x66 * x187 
  - x154 * x185 + x165 * x186 ] = 0
 e386: - 0.1 x7 + [ - x28 * x182 + x48 * x186 + x51 * x186 + x54 * x186 + x56 * x186 + x58 * x186 - x67 * x188 
  + x78 * x166 - x165 * x186 ] = 0
 e387: - 0.1 x9 - 0.5 x18 + [ - x30 * x181 - x40 * x183 - x53 * x185 + x60 * x187 + x63 * x187 + x66 * x187 
  + x68 * x187 + x70 * x187 - x155 * x187 + x167 * x188 ] = 0
 e388: - 0.1 x10 - 0.5 x19 + [ - x31 * x182 - x41 * x184 - x54 * x186 + x61 * x188 + x64 * x188 + x67 * x188 
  + x69 * x188 + x71 * x188 + x79 * x168 - x167 * x188 ] = 0

Bounds
 x2 <= 1
 x3 <= 1
 x4 <= 1
 x5 <= 1
 x6 <= 1
 x7 <= 1
 x8 <= 1
 x9 <= 1
 x10 <= 1
 x11 <= 1
 x12 <= 1
 x13 <= 1
 x14 <= 1
 x15 <= 1
 x16 <= 1
 x17 <= 1
 x18 <= 1
 x19 <= 1
 x20 <= 1
 x21 <= 1
 x22 <= 1
 x23 <= 1
 x24 <= 1
 x25 <= 1
 x26 <= 1
 x27 <= 1
 x28 <= 1
 x29 <= 1
 x30 <= 1
 x31 <= 1
 x32 <= 1
 x33 <= 1
 x34 <= 1
 x35 <= 1
 x36 <= 1
 x37 <= 1
 x38 <= 1
 x39 <= 1
 x40 <= 1
 x41 <= 1
 x42 <= 1
 x43 <= 1
 x44 <= 1
 x45 <= 1
 x46 <= 1
 x47 <= 1
 x48 <= 1
 x49 <= 1
 x50 <= 1
 x51 <= 1
 x52 <= 1
 x53 <= 1
 x54 <= 1
 x55 <= 1
 x56 <= 1
 x57 <= 1
 x58 <= 1
 x59 <= 1
 x60 <= 1
 x61 <= 1
 x62 <= 1
 x63 <= 1
 x64 <= 1
 x65 <= 1
 x66 <= 1
 x67 <= 1
 x68 <= 1
 x69 <= 1
 x70 <= 1
 x71 <= 1
 x72 <= 1
 x73 <= 1
 x74 <= 1
 x75 <= 1
 x76 <= 1
 x77 <= 1
 x78 <= 1
 x79 <= 1
 x150 <= 2
 x151 <= 2
 x152 <= 2
 x153 <= 2
 x154 <= 2
 x155 <= 2
 x156 <= 2
 x157 <= 2
 x158 <= 2
 x159 <= 2
 x160 <= 2
 x161 <= 2
 x162 <= 2
 x163 <= 2
 x164 <= 2
 x165 <= 2
 x166 <= 2
 x167 <= 2
 x168 <= 2
 x169 <= 2
 x170 <= 2
 x171 <= 2
 x172 <= 2
 x173 <= 1
 x174 <= 1
 x175 <= 1
 x176 <= 1
 x177 <= 1
 x178 <= 1
 x179 <= 1
 x180 <= 1
 x181 <= 1
 x182 <= 1
 x183 <= 1
 x184 <= 1
 x185 <= 1
 x186 <= 1
 x187 <= 1
 x188 <= 1

Binary
 b80 b81 b82 b83 b84 b85 b86 b87 b88 b89 b90 b91 b92 b93 b94 b95 b96 b97 b98 b99 b100 b101 b102
 b103 b104 b105 b106 b107 b108 b109 b110 b111 b112 b113 b114 b115 b116 b117 b118 b119 b120 b121
 b122 b123 b124 b125 b126 b127 b128 b129 b130 b131 b132 b133 b134 b135 b136 b137 b138 b139 b140
 b141 b142 b143 b144 b145 b146 b147 b148 b149

End
