\ Equation counts
\     Total        E        G        L        N        X        C        B
\        92       92        0        0        0        0        0        0
\ 
\ Variable counts
\                  x        b        i      s1s      s2s       sc       si
\     Total     cont   binary  integer     sos1     sos2    scont     sint
\       125      125        0        0        0        0        0        0
\ 
\ Nonzero counts
\     Total    const       NL      DLL
\       661      128      533        0
\ 
Minimize
 obj: 0 x2 + 0 x3 + 0 x4 + 0 x5 + 0 x6 + 0 x7 + 0 x8 + 0 x9 + 0 x10 + 0 x11 + 0 x12 + 0 x13 + 0 x14 + 0 x15 
  + 0 x16 + 0 x17 + 0 x18 + 0 x19 + 0 x20 + 0 x21 + 0 x22 + 0 x23 + 0 x24 + 0 x25 + 0 x26 + 0 x27 + 0 x28 
  + 0 x29 + 0 x30 + 0 x31 + 0 x32 + 0 x33 + 0 x34 + 0 x35 + 0 x36 + 0 x37 + 0 x38 + 0 x39 + 0 x40 + 0 x41 
  + 0 x42 - x43 + 0 x44 + 0 x45 + 0 x46 + 0 x47 + 0 x48 + 0 x49 + 0 x50 + 0 x51 + 0 x52 + 0 x53 + 0 x54 
  + 0 x55 + 0 x56 + 0 x57 + 0 x58 + 0 x59 + 0 x60 + 0 x61 + 0 x62 + 0 x63 + 0 x64 + 0 x65 + 0 x66 + 0 x67 
  + 0 x68 + 0 x69 + 0 x70 + 0 x71 + 0 x72 + 0 x73 + 0 x74 + 0 x75 + 0 x76 + 0 x77 + 0 x78 + 0 x79 + 0 x80 
  + 0 x81 + 0 x82 + 0 x83 + 0 x84 + 0 x85 + 0 x86 + 0 x87 + 0 x88 + 0 x89 + 0 x90 + 0 x91 + 0 x92 + 0 x93 
  + 0 x94 + 0 x95 + 0 x96 + 0 x97 + 0 x98 + 0 x99 + 0 x100 + 0 x101 + 0 x102 + 0 x103 + 0 x104 + 0 x105 
  + 0 x106 + 0 x107 + 0 x108 + 0 x109 + 0 x110 + 0 x111 + 0 x112 + 0 x113 + 0 x114 + 0 x115 + 0 x116 
  + 0 x117 + 0 x118 + 0 x119 + 0 x120 + 0 x121 + 0 x122 + 0 x123 + 0 x124 + 0 x125 + 0 x126

Subject To
 e2: - x61 - x62 - x63 - x64 - x65 = -100
 e3: - x61 + x66 - x67 - x68 - x69 - x70 - x71 = 0
 e4: - x62 + x72 - x73 - x74 - x75 - x76 - x77 = 0
 e5: - x63 + x78 - x79 - x80 - x81 - x82 - x83 = 0
 e6: - x64 + x84 - x85 - x86 - x87 - x88 - x89 = 0
 e7: - x65 + x90 - x91 - x92 - x93 - x94 - x95 = 0
 e8: - x66 + x96 = 0
 e9: - x72 + x97 = 0
 e10: - x78 + x98 = 0
 e11: - x84 + x99 = 0
 e12: - x90 + x100 = 0
 e13: - 0.6 x101 + x102 = 0
 e14: - 0.6 x103 + x104 = 0
 e15: - 0.6 x105 + x106 = 0
 e16: - 0.6 x107 + x108 = 0
 e17: - 0.6 x109 + x110 = 0
 e18: - 0.6 x111 + x112 = 0
 e19: - 0.6 x113 + x114 = 0
 e20: - 0.6 x115 + x116 = 0
 e21: - 0.6 x117 + x118 = 0
 e22: - 0.6 x119 + x120 = 0
 e23: - x67 - x73 - x79 - x85 - x91 + x96 - x121 = 0
 e24: - x68 - x74 - x80 - x86 - x92 + x97 - x122 = 0
 e25: - x69 - x75 - x81 - x87 - x93 + x98 - x123 = 0
 e26: - x70 - x76 - x82 - x88 - x94 + x99 - x124 = 0
 e27: - x71 - x77 - x83 - x89 - x95 + x100 - x125 = 0
 e28: - x121 - x122 - x123 - x124 - x125 + x126 = 0
 e29: - 6 x61 + [ x2 * x66 - x67 * x111 - x68 * x113 - x69 * x115 - x70 * x117 - x71 * x119 ] = 0
 e30: - 6 x62 + [ x7 * x72 - x73 * x111 - x74 * x113 - x75 * x115 - x76 * x117 - x77 * x119 ] = 0
 e31: - 6 x63 + [ x12 * x78 - x79 * x111 - x80 * x113 - x81 * x115 - x82 * x117 - x83 * x119 ] = 0
 e32: - 6 x64 + [ x17 * x84 - x85 * x111 - x86 * x113 - x87 * x115 - x88 * x117 - x89 * x119 ] = 0
 e33: - 6 x65 + [ x22 * x90 - x91 * x111 - x92 * x113 - x93 * x115 - x94 * x117 - x95 * x119 ] = 0
 e34: x51 + [ - x111^2 ] = 0
 e35: x52 + [ - x113^2 ] = 0
 e36: x53 + [ - x115^2 ] = 0
 e37: x54 + [ - x117^2 ] = 0
 e38: x55 + [ - x119^2 ] = 0
 e39: x56 + [ - 0.1 x101^2 ] = 0
 e40: x57 + [ - 0.1 x103^2 ] = 0
 e41: x58 + [ - 0.1 x105^2 ] = 0
 e42: x59 + [ - 0.1 x107^2 ] = 0
 e43: x60 + [ - 0.1 x109^2 ] = 0
 e44: 0.3 x126 + [ - x111 * x121 - x113 * x122 - x115 * x123 - x117 * x124 - x119 * x125 ] = 0
 e45: [ x3 * x66 - x67 * x101 - x68 * x103 - x69 * x105 - x70 * x107 - x71 * x109 ] = 0
 e46: [ x4 * x66 - x27 * x67 - x30 * x68 - x33 * x69 - x36 * x70 - x39 * x71 ] = 0
 e47: [ x5 * x66 - x28 * x67 - x31 * x68 - x34 * x69 - x37 * x70 - x40 * x71 ] = 0
 e48: [ x6 * x66 - x29 * x67 - x32 * x68 - x35 * x69 - x38 * x70 - x41 * x71 ] = 0
 e49: [ x8 * x72 - x73 * x101 - x74 * x103 - x75 * x105 - x76 * x107 - x77 * x109 ] = 0
 e50: [ x9 * x72 - x27 * x73 - x30 * x74 - x33 * x75 - x36 * x76 - x39 * x77 ] = 0
 e51: [ x10 * x72 - x28 * x73 - x31 * x74 - x34 * x75 - x37 * x76 - x40 * x77 ] = 0
 e52: [ x11 * x72 - x29 * x73 - x32 * x74 - x35 * x75 - x38 * x76 - x41 * x77 ] = 0
 e53: [ x13 * x78 - x79 * x101 - x80 * x103 - x81 * x105 - x82 * x107 - x83 * x109 ] = 0
 e54: [ x14 * x78 - x27 * x79 - x30 * x80 - x33 * x81 - x36 * x82 - x39 * x83 ] = 0
 e55: [ x15 * x78 - x28 * x79 - x31 * x80 - x34 * x81 - x37 * x82 - x40 * x83 ] = 0
 e56: [ x16 * x78 - x29 * x79 - x32 * x80 - x35 * x81 - x38 * x82 - x41 * x83 ] = 0
 e57: [ x18 * x84 - x85 * x101 - x86 * x103 - x87 * x105 - x88 * x107 - x89 * x109 ] = 0
 e58: [ x19 * x84 - x27 * x85 - x30 * x86 - x33 * x87 - x36 * x88 - x39 * x89 ] = 0
 e59: [ x20 * x84 - x28 * x85 - x31 * x86 - x34 * x87 - x37 * x88 - x40 * x89 ] = 0
 e60: [ x21 * x84 - x29 * x85 - x32 * x86 - x35 * x87 - x38 * x88 - x41 * x89 ] = 0
 e61: [ x23 * x90 - x91 * x101 - x92 * x103 - x93 * x105 - x94 * x107 - x95 * x109 ] = 0
 e62: [ x24 * x90 - x27 * x91 - x30 * x92 - x33 * x93 - x36 * x94 - x39 * x95 ] = 0
 e63: [ x25 * x90 - x28 * x91 - x31 * x92 - x34 * x93 - x37 * x94 - x40 * x95 ] = 0
 e64: [ x26 * x90 - x29 * x91 - x32 * x92 - x35 * x93 - x38 * x94 - x41 * x95 ] = 0
 e65: [ - x2 * x66 + x46 * x51 + x46 * x112 + x96 * x111 ] = 0
 e66: [ - x3 * x66 - x46 * x51 + x46 * x56 + x46 * x102 + x96 * x101 ] = 0
 e67: [ - x4 * x66 + x27 * x96 - x46 * x102 ] = 0
 e68: [ - x5 * x66 + x28 * x96 - x46 * x112 ] = 0
 e69: [ - x6 * x66 + x29 * x96 - x46 * x56 ] = 0
 e70: [ - x7 * x72 + x47 * x52 + x47 * x114 + x97 * x113 ] = 0
 e71: [ - x8 * x72 - x47 * x52 + x47 * x57 + x47 * x104 + x97 * x103 ] = 0
 e72: [ - x9 * x72 + x30 * x97 - x47 * x104 ] = 0
 e73: [ - x10 * x72 + x31 * x97 - x47 * x114 ] = 0
 e74: [ - x11 * x72 + x32 * x97 - x47 * x57 ] = 0
 e75: [ - x12 * x78 + x48 * x53 + x48 * x116 + x98 * x115 ] = 0
 e76: [ - x13 * x78 - x48 * x53 + x48 * x58 + x48 * x106 + x98 * x105 ] = 0
 e77: [ - x14 * x78 + x33 * x98 - x48 * x106 ] = 0
 e78: [ - x15 * x78 + x34 * x98 - x48 * x116 ] = 0
 e79: [ - x16 * x78 + x35 * x98 - x48 * x58 ] = 0
 e80: [ - x17 * x84 + x49 * x54 + x49 * x118 + x99 * x117 ] = 0
 e81: [ - x18 * x84 - x49 * x54 + x49 * x59 + x49 * x108 + x99 * x107 ] = 0
 e82: [ - x19 * x84 + x36 * x99 - x49 * x108 ] = 0
 e83: [ - x20 * x84 + x37 * x99 - x49 * x118 ] = 0
 e84: [ - x21 * x84 + x38 * x99 - x49 * x59 ] = 0
 e85: [ - x22 * x90 + x50 * x55 + x50 * x120 + x100 * x119 ] = 0
 e86: [ - x23 * x90 - x50 * x55 + x50 * x60 + x50 * x110 + x100 * x109 ] = 0
 e87: [ - x24 * x90 + x39 * x100 - x50 * x110 ] = 0
 e88: [ - x25 * x90 + x40 * x100 - x50 * x120 ] = 0
 e89: [ - x26 * x90 + x41 * x100 - x50 * x60 ] = 0
 e90: [ x42 * x126 - x101 * x121 - x103 * x122 - x105 * x123 - x107 * x124 - x109 * x125 ] = 0
 e91: [ - x27 * x121 - x30 * x122 - x33 * x123 - x36 * x124 - x39 * x125 + x43 * x126 ] = 0
 e92: [ - x28 * x121 - x31 * x122 - x34 * x123 - x37 * x124 - x40 * x125 + x44 * x126 ] = 0
 e93: [ - x29 * x121 - x32 * x122 - x35 * x123 - x38 * x124 - x41 * x125 + x45 * x126 ] = 0

Bounds
 x2 <= 10
 x3 <= 10
 x4 <= 10
 x5 <= 10
 x6 <= 10
 x7 <= 10
 x8 <= 10
 x9 <= 10
 x10 <= 10
 x11 <= 10
 x12 <= 10
 x13 <= 10
 x14 <= 10
 x15 <= 10
 x16 <= 10
 x17 <= 10
 x18 <= 10
 x19 <= 10
 x20 <= 10
 x21 <= 10
 x22 <= 10
 x23 <= 10
 x24 <= 10
 x25 <= 10
 x26 <= 10
 x27 <= 10
 x28 <= 10
 x29 <= 10
 x30 <= 10
 x31 <= 10
 x32 <= 10
 x33 <= 10
 x34 <= 10
 x35 <= 10
 x36 <= 10
 x37 <= 10
 x38 <= 10
 x39 <= 10
 x40 <= 10
 x41 <= 10
 x42 <= 10
 x43 <= 10
 x44 <= 10
 x45 <= 10
 x46 <= 10000
 x47 <= 10000
 x48 <= 10000
 x49 <= 10000
 x50 <= 10000
 x51 <= 10000
 x52 <= 10000
 x53 <= 10000
 x54 <= 10000
 x55 <= 10000
 x56 <= 10000
 x57 <= 10000
 x58 <= 10000
 x59 <= 10000
 x60 <= 10000
 x61 <= 1000
 x62 <= 1000
 x63 <= 1000
 x64 <= 1000
 x65 <= 1000
 x66 <= 1000
 x67 <= 1000
 x68 <= 1000
 x69 <= 1000
 x70 <= 1000
 x71 <= 1000
 x72 <= 1000
 x73 <= 1000
 x74 <= 1000
 x75 <= 1000
 x76 <= 1000
 x77 <= 1000
 x78 <= 1000
 x79 <= 1000
 x80 <= 1000
 x81 <= 1000
 x82 <= 1000
 x83 <= 1000
 x84 <= 1000
 x85 <= 1000
 x86 <= 1000
 x87 <= 1000
 x88 <= 1000
 x89 <= 1000
 x90 <= 1000
 x91 <= 1000
 x92 <= 1000
 x93 <= 1000
 x94 <= 1000
 x95 <= 1000
 x96 <= 1000
 x97 <= 1000
 x98 <= 1000
 x99 <= 1000
 x100 <= 1000
 x101 <= 10
 x102 <= 10000
 x103 <= 10
 x104 <= 10000
 x105 <= 10
 x106 <= 10000
 x107 <= 10
 x108 <= 10000
 x109 <= 10
 x110 <= 10000
 x111 <= 10
 x112 <= 10000
 x113 <= 10
 x114 <= 10000
 x115 <= 10
 x116 <= 10000
 x117 <= 10
 x118 <= 10000
 x119 <= 10
 x120 <= 10000
 x121 <= 1000
 x122 <= 1000
 x123 <= 1000
 x124 <= 1000
 x125 <= 1000
 x126 <= 1000

End
