\ Equation counts
\     Total        E        G        L        N        X        C        B
\       148      136       12        0        0        0        0        0
\ 
\ Variable counts
\                  x        b        i      s1s      s2s       sc       si
\     Total     cont   binary  integer     sos1     sos2    scont     sint
\       485      485        0        0        0        0        0        0
\ 
\ Nonzero counts
\     Total    const       NL      DLL
\      3198     1274     1924        0
\ 
Minimize
 obj: x2 + x3 + x4 + x5 + x6 + x7 + x8 + x9 + x10 + x11 + x12 + x13 + x14 + x15 + x16 + x17 + x18 + x19 
  + x20 + x21 + x22 + x23 + x24 + x25 + x26 + x27 + x28 + x29 + x30 + x31 + x32 + x33 + x34 + x35 + x36 
  + x37 + x38 + x39 + x40 + x41 + x42 + x43 + x44 + x45 + x46 + x47 + x48 + x49 + x50 + x51 + x52 + x53 
  + x54 + x55 + x56 + x57 + x58 + x59 + x60 + x61 + x62 + x63 + x64 + x65 + x66 + x67 + x68 + x69 + x70 
  + x71 + x72 + x73 + x74 + x75 + x76 + x77 + x78 + x79 + x80 + x81 + x82 + x83 + x84 + x85 + x86 + x87 
  + x88 + x89 + x90 + x91 + x92 + x93 + x94 + x95 + x96 + x97 + 0 x98 + 0 x99 + 0 x100 + 0 x101 + 0 x102 
  + 0 x103 + 0 x104 + 0 x105 + 0 x106 + 0 x107 + 0 x108 + 0 x109 + 0 x110 + 0 x111 + 0 x112 + 0 x113 
  + 0 x114 + 0 x115 + 0 x116 + 0 x117 + 0 x118 + 0 x119 + 0 x120 + 0 x121 + 0 x122 + 0 x123 + 0 x124 
  + 0 x125 + 0 x126 + 0 x127 + 0 x128 + 0 x129 + 0 x130 + 0 x131 + 0 x132 + 0 x133 + 0 x134 + 0 x135 
  + 0 x136 + 0 x137 + 0 x138 + 0 x139 + 0 x140 + 0 x141 + 0 x142 + 0 x143 + 0 x144 + 0 x145 + 0 x146 
  + 0 x147 + 0 x148 + 0 x149 + 0 x150 + 0 x151 + 0 x152 + 0 x153 + 0 x154 + 0 x155 + 0 x156 + 0 x157 
  + 0 x158 + 0 x159 + 0 x160 + 0 x161 + 0 x162 + 0 x163 + 0 x164 + 0 x165 + 0 x166 + 0 x167 + 0 x168 
  + 0 x169 + 0 x170 + 0 x171 + 0 x172 + 0 x173 + 0 x174 + 0 x175 + 0 x176 + 0 x177 + 0 x178 + 0 x179 
  + 0 x180 + 0 x181 + 0 x182 + 0 x183 + 0 x184 + 0 x185 + 0 x186 + 0 x187 + 0 x188 + 0 x189 + 0 x190 
  + 0 x191 + 0 x192 + 0 x193 + 0 x194 + 0 x195 + 0 x196 + 0 x197 + 0 x198 + 0 x199 + 0 x200 + 0 x201 
  + 0 x202 + 0 x203 + 0 x204 + 0 x205 + 0 x206 + 0 x207 + 0 x208 + 0 x209 + 0 x210 + 0 x211 + 0 x212 
  + 0 x213 + 0 x214 + 0 x215 + 0 x216 + 0 x217 + 0 x218 + 0 x219 + 0 x220 + 0 x221 + 0 x222 + 0 x223 
  + 0 x224 + 0 x225 + 0 x226 + 0 x227 + 0 x228 + 0 x229 + 0 x230 + 0 x231 + 0 x232 + 0 x233 + 0 x234 
  + 0 x235 + 0 x236 + 0 x237 + 0 x238 + 0 x239 + 0 x240 + 0 x241 + 0 x242 + 0 x243 + 0 x244 + 0 x245 
  + 0 x246 + 0 x247 + 0 x248 + 0 x249 + 0 x250 + 0 x251 + 0 x252 + 0 x253 + 0 x254 + 0 x255 + 0 x256 
  + 0 x257 + 0 x258 + 0 x259 + 0 x260 + 0 x261 + 0 x262 + 0 x263 + 0 x264 + 0 x265 + 0 x266 + 0 x267 
  + 0 x268 + 0 x269 + 0 x270 + 0 x271 + 0 x272 + 0 x273 + 0 x274 + 0 x275 + 0 x276 + 0 x277 + 0 x278 
  + 0 x279 + 0 x280 + 0 x281 + 0 x282 + 0 x283 + 0 x284 + 0 x285 + 0 x286 + 0 x287 + 0 x288 + 0 x289 
  + 0 x290 + 0 x291 + 0 x292 + 0 x293 + 0 x294 + 0 x295 + 0 x296 + 0 x297 + 0 x298 + 0 x299 + 0 x300 
  + 0 x301 + 0 x302 + 0 x303 + 0 x304 + 0 x305 + 0 x306 + 0 x307 + 0 x308 + 0 x309 + 0 x310 + 0 x311 
  + 0 x312 + 0 x313 + 0 x314 + 0 x315 + 0 x316 + 0 x317 + 0 x318 + 0 x319 + 0 x320 + 0 x321 + 0 x322 
  + 0 x323 + 0 x324 + 0 x325 + 0 x326 + 0 x327 + 0 x328 + 0 x329 + 0 x330 + 0 x331 + 0 x332 + 0 x333 
  + 0 x334 + 0 x335 + 0 x336 + 0 x337 + 0 x338 + 0 x339 + 0 x340 + 0 x341 + 0 x342 + 0 x343 + 0 x344 
  + 0 x345 + 0 x346 + 0 x347 + 0 x348 + 0 x349 + 0 x350 + 0 x351 + 0 x352 + 0 x353 + 0 x354 + 0 x355 
  + 0 x356 + 0 x357 + 0 x358 + 0 x359 + 0 x360 + 0 x361 + 0 x362 + 0 x363 + 0 x364 + 0 x365 + 0 x366 
  + 0 x367 + 0 x368 + 0 x369 + 0 x370 + 0 x371 + 0 x372 + 0 x373 + 0 x374 + 0 x375 + 0 x376 + 0 x377 
  + 0 x378 + 0 x379 + 0 x380 + 0 x381 + 0 x382 + 0 x383 + 0 x384 + 0 x385 + 0 x386 + 0 x387 + 0 x388 
  + 0 x389 + 0 x390 + 0 x391 + 0 x392 + 0 x393 + 0 x394 + 0 x395 + 0 x396 + 0 x397 + 0 x398 + 0 x399 
  + 0 x400 + 0 x401 + 0 x402 + 0 x403 + 0 x404 + 0 x405 + 0 x406 + 0 x407 + 0 x408 + 0 x409 + 0 x410 
  + 0 x411 + 0 x412 + 0 x413 + 0 x414 + 0 x415 + 0 x416 + 0 x417 + 0 x418 + 0 x419 + 0 x420 + 0 x421 
  + 0 x422 + 0 x423 + 0 x424 + 0 x425 + 0 x426 + 0 x427 + 0 x428 + 0 x429 + 0 x430 + 0 x431 + 0 x432 
  + 0 x433 + 0 x434 + 0 x435 + 0 x436 + 0 x437 + 0 x438 + 0 x439 + 0 x440 + 0 x441 + 0 x442 + 0 x443 
  + 0 x444 + 0 x445 + 0 x446 + 0 x447 + 0 x448 + 0 x449 + 0 x450 + 0 x451 + 0 x452 + 0 x453 + 0 x454 
  + 0 x455 + 0 x456 + 0 x457 + 0 x458 + 0 x459 + 0 x460 + 0 x461 + 0 x462 + 0 x463 + 0 x464 + 0 x465 
  + 0 x466 + 0 x467 + 0 x468 + 0 x469 + 0 x470 + 0 x471 + 0 x472 + 0 x473 + 0 x474 + 0 x475 + 0 x476 
  + 0 x477 + 0 x478 + 0 x479 + 0 x480 + 0 x481 + 0 x482 + 0 x483 + 0 x484 + 0 x485 + 0 x486

Subject To
 e2: - x2 - x18 - x34 - x50 - x66 - x82 + x202 - x203 - x204 - x205 - x206 - x207 - x208 - x209 - x210 
  - x211 - x212 - x213 - x214 - x215 - x216 - x217 - x218 = 0
 e3: - x3 - x19 - x35 - x51 - x67 - x83 + x219 - x220 - x221 - x222 - x223 - x224 - x225 - x226 - x227 
  - x228 - x229 - x230 - x231 - x232 - x233 - x234 - x235 = 0
 e4: - x4 - x20 - x36 - x52 - x68 - x84 + x236 - x237 - x238 - x239 - x240 - x241 - x242 - x243 - x244 
  - x245 - x246 - x247 - x248 - x249 - x250 - x251 - x252 = 0
 e5: - x5 - x21 - x37 - x53 - x69 - x85 + x253 - x254 - x255 - x256 - x257 - x258 - x259 - x260 - x261 
  - x262 - x263 - x264 - x265 - x266 - x267 - x268 - x269 = 0
 e6: - x6 - x22 - x38 - x54 - x70 - x86 + x270 - x271 - x272 - x273 - x274 - x275 - x276 - x277 - x278 
  - x279 - x280 - x281 - x282 - x283 - x284 - x285 - x286 = 0
 e7: - x7 - x23 - x39 - x55 - x71 - x87 + x287 - x288 - x289 - x290 - x291 - x292 - x293 - x294 - x295 
  - x296 - x297 - x298 - x299 - x300 - x301 - x302 - x303 = 0
 e8: - x8 - x24 - x40 - x56 - x72 - x88 + x304 - x305 - x306 - x307 - x308 - x309 - x310 - x311 - x312 
  - x313 - x314 - x315 - x316 - x317 - x318 - x319 - x320 = 0
 e9: - x9 - x25 - x41 - x57 - x73 - x89 + x321 - x322 - x323 - x324 - x325 - x326 - x327 - x328 - x329 
  - x330 - x331 - x332 - x333 - x334 - x335 - x336 - x337 = 0
 e10: - x10 - x26 - x42 - x58 - x74 - x90 + x338 - x339 - x340 - x341 - x342 - x343 - x344 - x345 - x346 
  - x347 - x348 - x349 - x350 - x351 - x352 - x353 - x354 = 0
 e11: - x11 - x27 - x43 - x59 - x75 - x91 + x355 - x356 - x357 - x358 - x359 - x360 - x361 - x362 - x363 
  - x364 - x365 - x366 - x367 - x368 - x369 - x370 - x371 = 0
 e12: - x12 - x28 - x44 - x60 - x76 - x92 + x372 - x373 - x374 - x375 - x376 - x377 - x378 - x379 - x380 
  - x381 - x382 - x383 - x384 - x385 - x386 - x387 - x388 = 0
 e13: - x13 - x29 - x45 - x61 - x77 - x93 + x389 - x390 - x391 - x392 - x393 - x394 - x395 - x396 - x397 
  - x398 - x399 - x400 - x401 - x402 - x403 - x404 - x405 = 0
 e14: - x14 - x30 - x46 - x62 - x78 - x94 + x406 - x407 - x408 - x409 - x410 - x411 - x412 - x413 - x414 
  - x415 - x416 - x417 - x418 - x419 - x420 - x421 - x422 = 0
 e15: - x15 - x31 - x47 - x63 - x79 - x95 - x423 - x424 - x425 - x426 - x427 - x428 - x429 - x430 - x431 
  - x432 - x433 - x434 - x435 - x436 - x437 - x438 = -45
 e16: - x16 - x32 - x48 - x64 - x80 - x96 - x439 - x440 - x441 - x442 - x443 - x444 - x445 - x446 - x447 
  - x448 - x449 - x450 - x451 - x452 - x453 - x454 = -100
 e17: - x17 - x33 - x49 - x65 - x81 - x97 - x455 - x456 - x457 - x458 - x459 - x460 - x461 - x462 - x463 
  - x464 - x465 - x466 - x467 - x468 - x469 - x470 = -75
 e18: x202 - x203 - x220 - x237 - x254 - x271 - x288 - x305 - x322 - x339 - x356 - x373 - x390 - x407 
  - x423 - x439 - x455 - x471 = 0
 e19: - x204 + x219 - x221 - x238 - x255 - x272 - x289 - x306 - x323 - x340 - x357 - x374 - x391 - x408 
  - x424 - x440 - x456 - x472 = 0
 e20: - x205 - x222 + x236 - x239 - x256 - x273 - x290 - x307 - x324 - x341 - x358 - x375 - x392 - x409 
  - x425 - x441 - x457 - x473 = 0
 e21: - x206 - x223 - x240 + x253 - x257 - x274 - x291 - x308 - x325 - x342 - x359 - x376 - x393 - x410 
  - x426 - x442 - x458 - x474 = 0
 e22: - x207 - x224 - x241 - x258 + x270 - x275 - x292 - x309 - x326 - x343 - x360 - x377 - x394 - x411 
  - x427 - x443 - x459 - x475 = 0
 e23: - x208 - x225 - x242 - x259 - x276 + x287 - x293 - x310 - x327 - x344 - x361 - x378 - x395 - x412 
  - x428 - x444 - x460 - x476 = 0
 e24: - x209 - x226 - x243 - x260 - x277 - x294 + x304 - x311 - x328 - x345 - x362 - x379 - x396 - x413 
  - x429 - x445 - x461 - x477 = 0
 e25: - x210 - x227 - x244 - x261 - x278 - x295 - x312 + x321 - x329 - x346 - x363 - x380 - x397 - x414 
  - x430 - x446 - x462 - x478 = 0
 e26: - x211 - x228 - x245 - x262 - x279 - x296 - x313 - x330 + x338 - x347 - x364 - x381 - x398 - x415 
  - x431 - x447 - x463 - x479 = 0
 e27: - x212 - x229 - x246 - x263 - x280 - x297 - x314 - x331 - x348 + x355 - x365 - x382 - x399 - x416 
  - x432 - x448 - x464 - x480 = 0
 e28: - x213 - x230 - x247 - x264 - x281 - x298 - x315 - x332 - x349 - x366 + x372 - x383 - x400 - x417 
  - x433 - x449 - x465 - x481 = 0
 e29: - x214 - x231 - x248 - x265 - x282 - x299 - x316 - x333 - x350 - x367 - x384 + x389 - x401 - x418 
  - x434 - x450 - x466 - x482 = 0
 e30: - x215 - x232 - x249 - x266 - x283 - x300 - x317 - x334 - x351 - x368 - x385 - x402 + x406 - x419 
  - x435 - x451 - x467 - x483 = 0
 e31: - x216 - x233 - x250 - x267 - x284 - x301 - x318 - x335 - x352 - x369 - x386 - x403 - x420 - x436 
  - x452 - x468 - x484 = -70
 e32: - x217 - x234 - x251 - x268 - x285 - x302 - x319 - x336 - x353 - x370 - x387 - x404 - x421 - x437 
  - x453 - x469 - x485 = -120
 e33: - x218 - x235 - x252 - x269 - x286 - x303 - x320 - x337 - x354 - x371 - x388 - x405 - x422 - x438 
  - x454 - x470 - x486 = -80
 e34: - 2 x2 - 7 x18 - 7 x34 - 6 x50 - 4 x66 - 8 x82 - 2808 x216 - 1753 x217 - 1379 x218 + [ x98 * x202 
  - x150 * x203 - x154 * x204 - x158 * x205 - x162 * x206 - x166 * x207 - x170 * x208 - x174 * x209 - x178 * x210 
  - x182 * x211 - x186 * x212 - x190 * x213 - x194 * x214 - x198 * x215 ] = 0
 e35: - 9 x2 - 6 x18 - 9 x34 - 9 x50 - 5 x82 - 1630 x216 - 1716 x217 - 2352 x218 + [ x99 * x202 - x151 * x203 
  - x155 * x204 - x159 * x205 - x163 * x206 - x167 * x207 - x171 * x208 - x175 * x209 - x179 * x210 - x183 * x211 
  - x187 * x212 - x191 * x213 - x195 * x214 - x199 * x215 ] = 0
 e36: - 8 x2 - 4 x18 - 7 x34 - 8 x50 - 6 x82 - 2281 x216 - 890 x217 - 2532 x218 + [ x100 * x202 - x152 * x203 
  - x156 * x204 - x160 * x205 - x164 * x206 - x168 * x207 - x172 * x208 - x176 * x209 - x180 * x210 - x184 * x211 
  - x188 * x212 - x192 * x213 - x196 * x214 - x200 * x215 ] = 0
 e37: - x2 - 6 x18 - x34 - 6 x66 - 9 x82 - 1996 x216 - 1853 x217 - 626 x218 + [ x101 * x202 - x153 * x203 
  - x157 * x204 - x161 * x205 - x165 * x206 - x169 * x207 - x173 * x208 - x177 * x209 - x181 * x210 - x185 * x211 
  - x189 * x212 - x193 * x213 - x197 * x214 - x201 * x215 ] = 0
 e38: - 2 x3 - 7 x19 - 7 x35 - 6 x51 - 4 x67 - 8 x83 - 2808 x233 - 1753 x234 - 1379 x235 + [ x102 * x219 
  - x150 * x220 - x154 * x221 - x158 * x222 - x162 * x223 - x166 * x224 - x170 * x225 - x174 * x226 - x178 * x227 
  - x182 * x228 - x186 * x229 - x190 * x230 - x194 * x231 - x198 * x232 ] = 0
 e39: - 9 x3 - 6 x19 - 9 x35 - 9 x51 - 5 x83 - 1630 x233 - 1716 x234 - 2352 x235 + [ x103 * x219 - x151 * x220 
  - x155 * x221 - x159 * x222 - x163 * x223 - x167 * x224 - x171 * x225 - x175 * x226 - x179 * x227 - x183 * x228 
  - x187 * x229 - x191 * x230 - x195 * x231 - x199 * x232 ] = 0
 e40: - 8 x3 - 4 x19 - 7 x35 - 8 x51 - 6 x83 - 2281 x233 - 890 x234 - 2532 x235 + [ x104 * x219 - x152 * x220 
  - x156 * x221 - x160 * x222 - x164 * x223 - x168 * x224 - x172 * x225 - x176 * x226 - x180 * x227 - x184 * x228 
  - x188 * x229 - x192 * x230 - x196 * x231 - x200 * x232 ] = 0
 e41: - x3 - 6 x19 - x35 - 6 x67 - 9 x83 - 1996 x233 - 1853 x234 - 626 x235 + [ x105 * x219 - x153 * x220 
  - x157 * x221 - x161 * x222 - x165 * x223 - x169 * x224 - x173 * x225 - x177 * x226 - x181 * x227 - x185 * x228 
  - x189 * x229 - x193 * x230 - x197 * x231 - x201 * x232 ] = 0
 e42: - 2 x4 - 7 x20 - 7 x36 - 6 x52 - 4 x68 - 8 x84 - 2808 x250 - 1753 x251 - 1379 x252 + [ x106 * x236 
  - x150 * x237 - x154 * x238 - x158 * x239 - x162 * x240 - x166 * x241 - x170 * x242 - x174 * x243 - x178 * x244 
  - x182 * x245 - x186 * x246 - x190 * x247 - x194 * x248 - x198 * x249 ] = 0
 e43: - 9 x4 - 6 x20 - 9 x36 - 9 x52 - 5 x84 - 1630 x250 - 1716 x251 - 2352 x252 + [ x107 * x236 - x151 * x237 
  - x155 * x238 - x159 * x239 - x163 * x240 - x167 * x241 - x171 * x242 - x175 * x243 - x179 * x244 - x183 * x245 
  - x187 * x246 - x191 * x247 - x195 * x248 - x199 * x249 ] = 0
 e44: - 8 x4 - 4 x20 - 7 x36 - 8 x52 - 6 x84 - 2281 x250 - 890 x251 - 2532 x252 + [ x108 * x236 - x152 * x237 
  - x156 * x238 - x160 * x239 - x164 * x240 - x168 * x241 - x172 * x242 - x176 * x243 - x180 * x244 - x184 * x245 
  - x188 * x246 - x192 * x247 - x196 * x248 - x200 * x249 ] = 0
 e45: - x4 - 6 x20 - x36 - 6 x68 - 9 x84 - 1996 x250 - 1853 x251 - 626 x252 + [ x109 * x236 - x153 * x237 
  - x157 * x238 - x161 * x239 - x165 * x240 - x169 * x241 - x173 * x242 - x177 * x243 - x181 * x244 - x185 * x245 
  - x189 * x246 - x193 * x247 - x197 * x248 - x201 * x249 ] = 0
 e46: - 2 x5 - 7 x21 - 7 x37 - 6 x53 - 4 x69 - 8 x85 - 2808 x267 - 1753 x268 - 1379 x269 + [ x110 * x253 
  - x150 * x254 - x154 * x255 - x158 * x256 - x162 * x257 - x166 * x258 - x170 * x259 - x174 * x260 - x178 * x261 
  - x182 * x262 - x186 * x263 - x190 * x264 - x194 * x265 - x198 * x266 ] = 0
 e47: - 9 x5 - 6 x21 - 9 x37 - 9 x53 - 5 x85 - 1630 x267 - 1716 x268 - 2352 x269 + [ x111 * x253 - x151 * x254 
  - x155 * x255 - x159 * x256 - x163 * x257 - x167 * x258 - x171 * x259 - x175 * x260 - x179 * x261 - x183 * x262 
  - x187 * x263 - x191 * x264 - x195 * x265 - x199 * x266 ] = 0
 e48: - 8 x5 - 4 x21 - 7 x37 - 8 x53 - 6 x85 - 2281 x267 - 890 x268 - 2532 x269 + [ x112 * x253 - x152 * x254 
  - x156 * x255 - x160 * x256 - x164 * x257 - x168 * x258 - x172 * x259 - x176 * x260 - x180 * x261 - x184 * x262 
  - x188 * x263 - x192 * x264 - x196 * x265 - x200 * x266 ] = 0
 e49: - x5 - 6 x21 - x37 - 6 x69 - 9 x85 - 1996 x267 - 1853 x268 - 626 x269 + [ x113 * x253 - x153 * x254 
  - x157 * x255 - x161 * x256 - x165 * x257 - x169 * x258 - x173 * x259 - x177 * x260 - x181 * x261 - x185 * x262 
  - x189 * x263 - x193 * x264 - x197 * x265 - x201 * x266 ] = 0
 e50: - 2 x6 - 7 x22 - 7 x38 - 6 x54 - 4 x70 - 8 x86 - 2808 x284 - 1753 x285 - 1379 x286 + [ x114 * x270 
  - x150 * x271 - x154 * x272 - x158 * x273 - x162 * x274 - x166 * x275 - x170 * x276 - x174 * x277 - x178 * x278 
  - x182 * x279 - x186 * x280 - x190 * x281 - x194 * x282 - x198 * x283 ] = 0
 e51: - 9 x6 - 6 x22 - 9 x38 - 9 x54 - 5 x86 - 1630 x284 - 1716 x285 - 2352 x286 + [ x115 * x270 - x151 * x271 
  - x155 * x272 - x159 * x273 - x163 * x274 - x167 * x275 - x171 * x276 - x175 * x277 - x179 * x278 - x183 * x279 
  - x187 * x280 - x191 * x281 - x195 * x282 - x199 * x283 ] = 0
 e52: - 8 x6 - 4 x22 - 7 x38 - 8 x54 - 6 x86 - 2281 x284 - 890 x285 - 2532 x286 + [ x116 * x270 - x152 * x271 
  - x156 * x272 - x160 * x273 - x164 * x274 - x168 * x275 - x172 * x276 - x176 * x277 - x180 * x278 - x184 * x279 
  - x188 * x280 - x192 * x281 - x196 * x282 - x200 * x283 ] = 0
 e53: - x6 - 6 x22 - x38 - 6 x70 - 9 x86 - 1996 x284 - 1853 x285 - 626 x286 + [ x117 * x270 - x153 * x271 
  - x157 * x272 - x161 * x273 - x165 * x274 - x169 * x275 - x173 * x276 - x177 * x277 - x181 * x278 - x185 * x279 
  - x189 * x280 - x193 * x281 - x197 * x282 - x201 * x283 ] = 0
 e54: - 2 x7 - 7 x23 - 7 x39 - 6 x55 - 4 x71 - 8 x87 - 2808 x301 - 1753 x302 - 1379 x303 + [ x118 * x287 
  - x150 * x288 - x154 * x289 - x158 * x290 - x162 * x291 - x166 * x292 - x170 * x293 - x174 * x294 - x178 * x295 
  - x182 * x296 - x186 * x297 - x190 * x298 - x194 * x299 - x198 * x300 ] = 0
 e55: - 9 x7 - 6 x23 - 9 x39 - 9 x55 - 5 x87 - 1630 x301 - 1716 x302 - 2352 x303 + [ x119 * x287 - x151 * x288 
  - x155 * x289 - x159 * x290 - x163 * x291 - x167 * x292 - x171 * x293 - x175 * x294 - x179 * x295 - x183 * x296 
  - x187 * x297 - x191 * x298 - x195 * x299 - x199 * x300 ] = 0
 e56: - 8 x7 - 4 x23 - 7 x39 - 8 x55 - 6 x87 - 2281 x301 - 890 x302 - 2532 x303 + [ x120 * x287 - x152 * x288 
  - x156 * x289 - x160 * x290 - x164 * x291 - x168 * x292 - x172 * x293 - x176 * x294 - x180 * x295 - x184 * x296 
  - x188 * x297 - x192 * x298 - x196 * x299 - x200 * x300 ] = 0
 e57: - x7 - 6 x23 - x39 - 6 x71 - 9 x87 - 1996 x301 - 1853 x302 - 626 x303 + [ x121 * x287 - x153 * x288 
  - x157 * x289 - x161 * x290 - x165 * x291 - x169 * x292 - x173 * x293 - x177 * x294 - x181 * x295 - x185 * x296 
  - x189 * x297 - x193 * x298 - x197 * x299 - x201 * x300 ] = 0
 e58: - 2 x8 - 7 x24 - 7 x40 - 6 x56 - 4 x72 - 8 x88 - 2808 x318 - 1753 x319 - 1379 x320 + [ x122 * x304 
  - x150 * x305 - x154 * x306 - x158 * x307 - x162 * x308 - x166 * x309 - x170 * x310 - x174 * x311 - x178 * x312 
  - x182 * x313 - x186 * x314 - x190 * x315 - x194 * x316 - x198 * x317 ] = 0
 e59: - 9 x8 - 6 x24 - 9 x40 - 9 x56 - 5 x88 - 1630 x318 - 1716 x319 - 2352 x320 + [ x123 * x304 - x151 * x305 
  - x155 * x306 - x159 * x307 - x163 * x308 - x167 * x309 - x171 * x310 - x175 * x311 - x179 * x312 - x183 * x313 
  - x187 * x314 - x191 * x315 - x195 * x316 - x199 * x317 ] = 0
 e60: - 8 x8 - 4 x24 - 7 x40 - 8 x56 - 6 x88 - 2281 x318 - 890 x319 - 2532 x320 + [ x124 * x304 - x152 * x305 
  - x156 * x306 - x160 * x307 - x164 * x308 - x168 * x309 - x172 * x310 - x176 * x311 - x180 * x312 - x184 * x313 
  - x188 * x314 - x192 * x315 - x196 * x316 - x200 * x317 ] = 0
 e61: - x8 - 6 x24 - x40 - 6 x72 - 9 x88 - 1996 x318 - 1853 x319 - 626 x320 + [ x125 * x304 - x153 * x305 
  - x157 * x306 - x161 * x307 - x165 * x308 - x169 * x309 - x173 * x310 - x177 * x311 - x181 * x312 - x185 * x313 
  - x189 * x314 - x193 * x315 - x197 * x316 - x201 * x317 ] = 0
 e62: - 2 x9 - 7 x25 - 7 x41 - 6 x57 - 4 x73 - 8 x89 - 2808 x335 - 1753 x336 - 1379 x337 + [ x126 * x321 
  - x150 * x322 - x154 * x323 - x158 * x324 - x162 * x325 - x166 * x326 - x170 * x327 - x174 * x328 - x178 * x329 
  - x182 * x330 - x186 * x331 - x190 * x332 - x194 * x333 - x198 * x334 ] = 0
 e63: - 9 x9 - 6 x25 - 9 x41 - 9 x57 - 5 x89 - 1630 x335 - 1716 x336 - 2352 x337 + [ x127 * x321 - x151 * x322 
  - x155 * x323 - x159 * x324 - x163 * x325 - x167 * x326 - x171 * x327 - x175 * x328 - x179 * x329 - x183 * x330 
  - x187 * x331 - x191 * x332 - x195 * x333 - x199 * x334 ] = 0
 e64: - 8 x9 - 4 x25 - 7 x41 - 8 x57 - 6 x89 - 2281 x335 - 890 x336 - 2532 x337 + [ x128 * x321 - x152 * x322 
  - x156 * x323 - x160 * x324 - x164 * x325 - x168 * x326 - x172 * x327 - x176 * x328 - x180 * x329 - x184 * x330 
  - x188 * x331 - x192 * x332 - x196 * x333 - x200 * x334 ] = 0
 e65: - x9 - 6 x25 - x41 - 6 x73 - 9 x89 - 1996 x335 - 1853 x336 - 626 x337 + [ x129 * x321 - x153 * x322 
  - x157 * x323 - x161 * x324 - x165 * x325 - x169 * x326 - x173 * x327 - x177 * x328 - x181 * x329 - x185 * x330 
  - x189 * x331 - x193 * x332 - x197 * x333 - x201 * x334 ] = 0
 e66: - 2 x10 - 7 x26 - 7 x42 - 6 x58 - 4 x74 - 8 x90 - 2808 x352 - 1753 x353 - 1379 x354 + [ x130 * x338 
  - x150 * x339 - x154 * x340 - x158 * x341 - x162 * x342 - x166 * x343 - x170 * x344 - x174 * x345 - x178 * x346 
  - x182 * x347 - x186 * x348 - x190 * x349 - x194 * x350 - x198 * x351 ] = 0
 e67: - 9 x10 - 6 x26 - 9 x42 - 9 x58 - 5 x90 - 1630 x352 - 1716 x353 - 2352 x354 + [ x131 * x338 - x151 * x339 
  - x155 * x340 - x159 * x341 - x163 * x342 - x167 * x343 - x171 * x344 - x175 * x345 - x179 * x346 - x183 * x347 
  - x187 * x348 - x191 * x349 - x195 * x350 - x199 * x351 ] = 0
 e68: - 8 x10 - 4 x26 - 7 x42 - 8 x58 - 6 x90 - 2281 x352 - 890 x353 - 2532 x354 + [ x132 * x338 - x152 * x339 
  - x156 * x340 - x160 * x341 - x164 * x342 - x168 * x343 - x172 * x344 - x176 * x345 - x180 * x346 - x184 * x347 
  - x188 * x348 - x192 * x349 - x196 * x350 - x200 * x351 ] = 0
 e69: - x10 - 6 x26 - x42 - 6 x74 - 9 x90 - 1996 x352 - 1853 x353 - 626 x354 + [ x133 * x338 - x153 * x339 
  - x157 * x340 - x161 * x341 - x165 * x342 - x169 * x343 - x173 * x344 - x177 * x345 - x181 * x346 - x185 * x347 
  - x189 * x348 - x193 * x349 - x197 * x350 - x201 * x351 ] = 0
 e70: - 2 x11 - 7 x27 - 7 x43 - 6 x59 - 4 x75 - 8 x91 - 2808 x369 - 1753 x370 - 1379 x371 + [ x134 * x355 
  - x150 * x356 - x154 * x357 - x158 * x358 - x162 * x359 - x166 * x360 - x170 * x361 - x174 * x362 - x178 * x363 
  - x182 * x364 - x186 * x365 - x190 * x366 - x194 * x367 - x198 * x368 ] = 0
 e71: - 9 x11 - 6 x27 - 9 x43 - 9 x59 - 5 x91 - 1630 x369 - 1716 x370 - 2352 x371 + [ x135 * x355 - x151 * x356 
  - x155 * x357 - x159 * x358 - x163 * x359 - x167 * x360 - x171 * x361 - x175 * x362 - x179 * x363 - x183 * x364 
  - x187 * x365 - x191 * x366 - x195 * x367 - x199 * x368 ] = 0
 e72: - 8 x11 - 4 x27 - 7 x43 - 8 x59 - 6 x91 - 2281 x369 - 890 x370 - 2532 x371 + [ x136 * x355 - x152 * x356 
  - x156 * x357 - x160 * x358 - x164 * x359 - x168 * x360 - x172 * x361 - x176 * x362 - x180 * x363 - x184 * x364 
  - x188 * x365 - x192 * x366 - x196 * x367 - x200 * x368 ] = 0
 e73: - x11 - 6 x27 - x43 - 6 x75 - 9 x91 - 1996 x369 - 1853 x370 - 626 x371 + [ x137 * x355 - x153 * x356 
  - x157 * x357 - x161 * x358 - x165 * x359 - x169 * x360 - x173 * x361 - x177 * x362 - x181 * x363 - x185 * x364 
  - x189 * x365 - x193 * x366 - x197 * x367 - x201 * x368 ] = 0
 e74: - 2 x12 - 7 x28 - 7 x44 - 6 x60 - 4 x76 - 8 x92 - 2808 x386 - 1753 x387 - 1379 x388 + [ x138 * x372 
  - x150 * x373 - x154 * x374 - x158 * x375 - x162 * x376 - x166 * x377 - x170 * x378 - x174 * x379 - x178 * x380 
  - x182 * x381 - x186 * x382 - x190 * x383 - x194 * x384 - x198 * x385 ] = 0
 e75: - 9 x12 - 6 x28 - 9 x44 - 9 x60 - 5 x92 - 1630 x386 - 1716 x387 - 2352 x388 + [ x139 * x372 - x151 * x373 
  - x155 * x374 - x159 * x375 - x163 * x376 - x167 * x377 - x171 * x378 - x175 * x379 - x179 * x380 - x183 * x381 
  - x187 * x382 - x191 * x383 - x195 * x384 - x199 * x385 ] = 0
 e76: - 8 x12 - 4 x28 - 7 x44 - 8 x60 - 6 x92 - 2281 x386 - 890 x387 - 2532 x388 + [ x140 * x372 - x152 * x373 
  - x156 * x374 - x160 * x375 - x164 * x376 - x168 * x377 - x172 * x378 - x176 * x379 - x180 * x380 - x184 * x381 
  - x188 * x382 - x192 * x383 - x196 * x384 - x200 * x385 ] = 0
 e77: - x12 - 6 x28 - x44 - 6 x76 - 9 x92 - 1996 x386 - 1853 x387 - 626 x388 + [ x141 * x372 - x153 * x373 
  - x157 * x374 - x161 * x375 - x165 * x376 - x169 * x377 - x173 * x378 - x177 * x379 - x181 * x380 - x185 * x381 
  - x189 * x382 - x193 * x383 - x197 * x384 - x201 * x385 ] = 0
 e78: - 2 x13 - 7 x29 - 7 x45 - 6 x61 - 4 x77 - 8 x93 - 2808 x403 - 1753 x404 - 1379 x405 + [ x142 * x389 
  - x150 * x390 - x154 * x391 - x158 * x392 - x162 * x393 - x166 * x394 - x170 * x395 - x174 * x396 - x178 * x397 
  - x182 * x398 - x186 * x399 - x190 * x400 - x194 * x401 - x198 * x402 ] = 0
 e79: - 9 x13 - 6 x29 - 9 x45 - 9 x61 - 5 x93 - 1630 x403 - 1716 x404 - 2352 x405 + [ x143 * x389 - x151 * x390 
  - x155 * x391 - x159 * x392 - x163 * x393 - x167 * x394 - x171 * x395 - x175 * x396 - x179 * x397 - x183 * x398 
  - x187 * x399 - x191 * x400 - x195 * x401 - x199 * x402 ] = 0
 e80: - 8 x13 - 4 x29 - 7 x45 - 8 x61 - 6 x93 - 2281 x403 - 890 x404 - 2532 x405 + [ x144 * x389 - x152 * x390 
  - x156 * x391 - x160 * x392 - x164 * x393 - x168 * x394 - x172 * x395 - x176 * x396 - x180 * x397 - x184 * x398 
  - x188 * x399 - x192 * x400 - x196 * x401 - x200 * x402 ] = 0
 e81: - x13 - 6 x29 - x45 - 6 x77 - 9 x93 - 1996 x403 - 1853 x404 - 626 x405 + [ x145 * x389 - x153 * x390 
  - x157 * x391 - x161 * x392 - x165 * x393 - x169 * x394 - x173 * x395 - x177 * x396 - x181 * x397 - x185 * x398 
  - x189 * x399 - x193 * x400 - x197 * x401 - x201 * x402 ] = 0
 e82: - 2 x14 - 7 x30 - 7 x46 - 6 x62 - 4 x78 - 8 x94 - 2808 x420 - 1753 x421 - 1379 x422 + [ x146 * x406 
  - x150 * x407 - x154 * x408 - x158 * x409 - x162 * x410 - x166 * x411 - x170 * x412 - x174 * x413 - x178 * x414 
  - x182 * x415 - x186 * x416 - x190 * x417 - x194 * x418 - x198 * x419 ] = 0
 e83: - 9 x14 - 6 x30 - 9 x46 - 9 x62 - 5 x94 - 1630 x420 - 1716 x421 - 2352 x422 + [ x147 * x406 - x151 * x407 
  - x155 * x408 - x159 * x409 - x163 * x410 - x167 * x411 - x171 * x412 - x175 * x413 - x179 * x414 - x183 * x415 
  - x187 * x416 - x191 * x417 - x195 * x418 - x199 * x419 ] = 0
 e84: - 8 x14 - 4 x30 - 7 x46 - 8 x62 - 6 x94 - 2281 x420 - 890 x421 - 2532 x422 + [ x148 * x406 - x152 * x407 
  - x156 * x408 - x160 * x409 - x164 * x410 - x168 * x411 - x172 * x412 - x176 * x413 - x180 * x414 - x184 * x415 
  - x188 * x416 - x192 * x417 - x196 * x418 - x200 * x419 ] = 0
 e85: - x14 - 6 x30 - x46 - 6 x78 - 9 x94 - 1996 x420 - 1853 x421 - 626 x422 + [ x149 * x406 - x153 * x407 
  - x157 * x408 - x161 * x409 - x165 * x410 - x169 * x411 - x173 * x412 - x177 * x413 - x181 * x414 - x185 * x415 
  - x189 * x416 - x193 * x417 - x197 * x418 - x201 * x419 ] = 0
 e86: - 2 x15 - 7 x31 - 7 x47 - 6 x63 - 4 x79 - 8 x95 - 2808 x436 - 1753 x437 - 1379 x438 + [ - x150 * x423 
  - x154 * x424 - x158 * x425 - x162 * x426 - x166 * x427 - x170 * x428 - x174 * x429 - x178 * x430 - x182 * x431 
  - x186 * x432 - x190 * x433 - x194 * x434 - x198 * x435 ] >= -77310
 e87: - 9 x15 - 6 x31 - 9 x47 - 9 x63 - 5 x95 - 1630 x436 - 1716 x437 - 2352 x438 + [ - x151 * x423 - x155 * x424 
  - x159 * x425 - x163 * x426 - x167 * x427 - x171 * x428 - x175 * x429 - x179 * x430 - x183 * x431 - x187 * x432 
  - x191 * x433 - x195 * x434 - x199 * x435 ] >= -38610
 e88: - 8 x15 - 4 x31 - 7 x47 - 8 x63 - 6 x95 - 2281 x436 - 890 x437 - 2532 x438 + [ - x152 * x423 - x156 * x424 
  - x160 * x425 - x164 * x426 - x168 * x427 - x172 * x428 - x176 * x429 - x180 * x430 - x184 * x431 - x188 * x432 
  - x192 * x433 - x196 * x434 - x200 * x435 ] >= -14535
 e89: - x15 - 6 x31 - x47 - 6 x79 - 9 x95 - 1996 x436 - 1853 x437 - 626 x438 + [ - x153 * x423 - x157 * x424 
  - x161 * x425 - x165 * x426 - x169 * x427 - x173 * x428 - x177 * x429 - x181 * x430 - x185 * x431 - x189 * x432 
  - x193 * x433 - x197 * x434 - x201 * x435 ] >= -8595
 e90: - 2 x16 - 7 x32 - 7 x48 - 6 x64 - 4 x80 - 8 x96 - 2808 x452 - 1753 x453 - 1379 x454 + [ - x150 * x439 
  - x154 * x440 - x158 * x441 - x162 * x442 - x166 * x443 - x170 * x444 - x174 * x445 - x178 * x446 - x182 * x447 
  - x186 * x448 - x190 * x449 - x194 * x450 - x198 * x451 ] >= -166100
 e91: - 9 x16 - 6 x32 - 9 x48 - 9 x64 - 5 x96 - 1630 x452 - 1716 x453 - 2352 x454 + [ - x151 * x439 - x155 * x440 
  - x159 * x441 - x163 * x442 - x167 * x443 - x171 * x444 - x175 * x445 - x179 * x446 - x183 * x447 - x187 * x448 
  - x191 * x449 - x195 * x450 - x199 * x451 ] >= -136600
 e92: - 8 x16 - 4 x32 - 7 x48 - 8 x64 - 6 x96 - 2281 x452 - 890 x453 - 2532 x454 + [ - x152 * x439 - x156 * x440 
  - x160 * x441 - x164 * x442 - x168 * x443 - x172 * x444 - x176 * x445 - x180 * x446 - x184 * x447 - x188 * x448 
  - x192 * x449 - x196 * x450 - x200 * x451 ] >= -41300
 e93: - x16 - 6 x32 - x48 - 6 x80 - 9 x96 - 1996 x452 - 1853 x453 - 626 x454 + [ - x153 * x439 - x157 * x440 
  - x161 * x441 - x165 * x442 - x169 * x443 - x173 * x444 - x177 * x445 - x181 * x446 - x185 * x447 - x189 * x448 
  - x193 * x449 - x197 * x450 - x201 * x451 ] >= -154600
 e94: - 2 x17 - 7 x33 - 7 x49 - 6 x65 - 4 x81 - 8 x97 - 2808 x468 - 1753 x469 - 1379 x470 + [ - x150 * x455 
  - x154 * x456 - x158 * x457 - x162 * x458 - x166 * x459 - x170 * x460 - x174 * x461 - x178 * x462 - x182 * x463 
  - x186 * x464 - x190 * x465 - x194 * x466 - x198 * x467 ] >= -93225
 e95: - 9 x17 - 6 x33 - 9 x49 - 9 x65 - 5 x97 - 1630 x468 - 1716 x469 - 2352 x470 + [ - x151 * x455 - x155 * x456 
  - x159 * x457 - x163 * x458 - x167 * x459 - x171 * x460 - x175 * x461 - x179 * x462 - x183 * x463 - x187 * x464 
  - x191 * x465 - x195 * x466 - x199 * x467 ] >= -47925
 e96: - 8 x17 - 4 x33 - 7 x49 - 8 x65 - 6 x97 - 2281 x468 - 890 x469 - 2532 x470 + [ - x152 * x455 - x156 * x456 
  - x160 * x457 - x164 * x458 - x168 * x459 - x172 * x460 - x176 * x461 - x180 * x462 - x184 * x463 - x188 * x464 
  - x192 * x465 - x196 * x466 - x200 * x467 ] >= -155850
 e97: - x17 - 6 x33 - x49 - 6 x81 - 9 x97 - 1996 x468 - 1853 x469 - 626 x470 + [ - x153 * x455 - x157 * x456 
  - x161 * x457 - x165 * x458 - x169 * x459 - x173 * x460 - x177 * x461 - x181 * x462 - x185 * x463 - x189 * x464 
  - x193 * x465 - x197 * x466 - x201 * x467 ] >= -18675
 e98: [ x98 * x202 - x150 * x202 ] = -3752
 e99: [ x99 * x202 - x151 * x202 ] = -146060
 e100: [ x100 * x202 - x152 * x202 ] = -151420
 e101: [ x101 * x202 - x153 * x202 ] = -93800
 e102: [ x102 * x219 - x154 * x219 ] = -10434
 e103: [ x103 * x219 - x155 * x219 ] = -29748
 e104: [ x104 * x219 - x156 * x219 ] = -42254
 e105: [ x105 * x219 - x157 * x219 ] = -20202
 e106: [ x106 * x236 - x158 * x236 ] = -48022
 e107: [ x107 * x236 - x159 * x236 ] = -13806
 e108: [ x108 * x236 - x160 * x236 ] = -14612
 e109: [ x109 * x236 - x161 * x236 ] = -39182
 e110: [ x110 * x253 - x162 * x253 ] = -123816
 e111: [ x111 * x253 - x163 * x253 ] = -23056
 e112: [ x112 * x253 - x164 * x253 ] = -209352
 e113: [ x113 * x253 - x165 * x253 ] = -195536
 e114: [ x114 * x270 - x166 * x270 ] = -107500
 e115: [ x115 * x270 - x167 * x270 ] = -24600
 e116: [ x116 * x270 - x168 * x270 ] = -79900
 e117: [ x117 * x270 - x169 * x270 ] = -186000
 e118: [ x118 * x287 - x170 * x287 ] = -5280
 e119: [ x119 * x287 - x171 * x287 ] = -31240
 e120: [ x120 * x287 - x172 * x287 ] = -67155
 e121: [ x121 * x287 - x173 * x287 ] = -76175
 e122: [ x122 * x304 - x174 * x304 ] = -57900
 e123: [ x123 * x304 - x175 * x304 ] = -9850
 e124: [ x124 * x304 - x176 * x304 ] = -35700
 e125: [ x125 * x304 - x177 * x304 ] = -134550
 e126: [ x126 * x321 - x178 * x321 ] = -2626
 e127: [ x127 * x321 - x179 * x321 ] = -33748
 e128: [ x128 * x321 - x180 * x321 ] = -23088
 e129: [ x129 * x321 - x181 * x321 ] = -67496
 e130: [ x130 * x338 - x182 * x338 ] = -223146
 e131: [ x131 * x338 - x183 * x338 ] = -19110
 e132: [ x132 * x338 - x184 * x338 ] = -97412
 e133: [ x133 * x338 - x185 * x338 ] = -22932
 e134: [ x134 * x355 - x186 * x355 ] = -48070
 e135: [ x135 * x355 - x187 * x355 ] = -114425
 e136: [ x136 * x355 - x188 * x355 ] = -72220
 e137: [ x137 * x355 - x189 * x355 ] = -200790
 e138: [ x138 * x372 - x190 * x372 ] = -81090
 e139: [ x139 * x372 - x191 * x372 ] = -133365
 e140: [ x140 * x372 - x192 * x372 ] = -25075
 e141: [ x141 * x372 - x193 * x372 ] = -4335
 e142: [ x142 * x389 - x194 * x389 ] = -75905
 e143: [ x143 * x389 - x195 * x389 ] = -111435
 e144: [ x144 * x389 - x196 * x389 ] = -109725
 e145: [ x145 * x389 - x197 * x389 ] = -21660
 e146: [ x146 * x406 - x198 * x406 ] = -33800
 e147: [ x147 * x406 - x199 * x406 ] = -176500
 e148: [ x148 * x406 - x200 * x406 ] = -153000
 e149: [ x149 * x406 - x201 * x406 ] = -74400

Bounds
 x2 <= 100000
 x3 <= 100000
 x4 <= 100000
 x5 <= 100000
 x6 <= 100000
 x7 <= 100000
 x8 <= 100000
 x9 <= 100000
 x10 <= 100000
 x11 <= 100000
 x12 <= 100000
 x13 <= 100000
 x14 <= 100000
 x15 <= 100000
 x16 <= 100000
 x17 <= 100000
 x18 <= 100000
 x19 <= 100000
 x20 <= 100000
 x21 <= 100000
 x22 <= 100000
 x23 <= 100000
 x24 <= 100000
 x25 <= 100000
 x26 <= 100000
 x27 <= 100000
 x28 <= 100000
 x29 <= 100000
 x30 <= 100000
 x31 <= 100000
 x32 <= 100000
 x33 <= 100000
 x34 <= 100000
 x35 <= 100000
 x36 <= 100000
 x37 <= 100000
 x38 <= 100000
 x39 <= 100000
 x40 <= 100000
 x41 <= 100000
 x42 <= 100000
 x43 <= 100000
 x44 <= 100000
 x45 <= 100000
 x46 <= 100000
 x47 <= 100000
 x48 <= 100000
 x49 <= 100000
 x50 <= 100000
 x51 <= 100000
 x52 <= 100000
 x53 <= 100000
 x54 <= 100000
 x55 <= 100000
 x56 <= 100000
 x57 <= 100000
 x58 <= 100000
 x59 <= 100000
 x60 <= 100000
 x61 <= 100000
 x62 <= 100000
 x63 <= 100000
 x64 <= 100000
 x65 <= 100000
 x66 <= 100000
 x67 <= 100000
 x68 <= 100000
 x69 <= 100000
 x70 <= 100000
 x71 <= 100000
 x72 <= 100000
 x73 <= 100000
 x74 <= 100000
 x75 <= 100000
 x76 <= 100000
 x77 <= 100000
 x78 <= 100000
 x79 <= 100000
 x80 <= 100000
 x81 <= 100000
 x82 <= 100000
 x83 <= 100000
 x84 <= 100000
 x85 <= 100000
 x86 <= 100000
 x87 <= 100000
 x88 <= 100000
 x89 <= 100000
 x90 <= 100000
 x91 <= 100000
 x92 <= 100000
 x93 <= 100000
 x94 <= 100000
 x95 <= 100000
 x96 <= 100000
 x97 <= 100000
 x98 <= 2250
 x99 <= 575
 x100 <= 203
 x101 <= 1393
 x102 <= 298
 x103 <= 2353
 x104 <= 364
 x105 <= 2396
 x106 <= 883
 x107 <= 1292
 x108 <= 2398
 x109 <= 862
 x110 <= 1257
 x111 <= 2354
 x112 <= 327
 x113 <= 341
 x114 <= 1680
 x115 <= 2476
 x116 <= 2105
 x117 <= 1092
 x118 <= 1759
 x119 <= 301
 x120 <= 139
 x121 <= 1354
 x122 <= 58
 x123 <= 2025
 x124 <= 511
 x125 <= 124
 x126 <= 2084
 x127 <= 538
 x128 <= 537
 x129 <= 225
 x130 <= 427
 x131 <= 2087
 x132 <= 1759
 x133 <= 482
 x134 <= 2086
 x135 <= 1863
 x136 <= 2195
 x137 <= 396
 x138 <= 2012
 x139 <= 994
 x140 <= 1923
 x141 <= 2076
 x142 <= 647
 x143 <= 557
 x144 <= 1675
 x145 <= 2330
 x146 <= 1898
 x147 <= 527
 x148 <= 381
 x149 <= 1257
 x150 <= 2278
 x151 <= 1665
 x152 <= 1333
 x153 <= 2093
 x154 <= 439
 x155 <= 2755
 x156 <= 935
 x157 <= 2669
 x158 <= 2730
 x159 <= 1823
 x160 <= 2960
 x161 <= 2369
 x162 <= 2664
 x163 <= 2616
 x164 <= 2706
 x165 <= 2563
 x166 <= 2755
 x167 <= 2722
 x168 <= 2904
 x169 <= 2952
 x170 <= 1855
 x171 <= 869
 x172 <= 1360
 x173 <= 2739
 x174 <= 1216
 x175 <= 2222
 x176 <= 1225
 x177 <= 2815
 x178 <= 2185
 x179 <= 1836
 x180 <= 1425
 x181 <= 2821
 x182 <= 2704
 x183 <= 2282
 x184 <= 2753
 x185 <= 716
 x186 <= 2504
 x187 <= 2858
 x188 <= 2823
 x189 <= 2142
 x190 <= 2966
 x191 <= 2563
 x192 <= 2218
 x193 <= 2127
 x194 <= 1446
 x195 <= 1730
 x196 <= 2830
 x197 <= 2558
 x198 <= 2236
 x199 <= 2292
 x200 <= 1911
 x201 <= 2001
 x202 <= 134
 x203 <= 100000
 x204 <= 100000
 x205 <= 100000
 x206 <= 100000
 x207 <= 100000
 x208 <= 100000
 x209 <= 100000
 x210 <= 100000
 x211 <= 100000
 x212 <= 100000
 x213 <= 100000
 x214 <= 100000
 x215 <= 100000
 x216 <= 100000
 x217 <= 100000
 x218 <= 100000
 x219 <= 74
 x220 <= 100000
 x221 <= 100000
 x222 <= 100000
 x223 <= 100000
 x224 <= 100000
 x225 <= 100000
 x226 <= 100000
 x227 <= 100000
 x228 <= 100000
 x229 <= 100000
 x230 <= 100000
 x231 <= 100000
 x232 <= 100000
 x233 <= 100000
 x234 <= 100000
 x235 <= 100000
 x236 <= 26
 x237 <= 100000
 x238 <= 100000
 x239 <= 100000
 x240 <= 100000
 x241 <= 100000
 x242 <= 100000
 x243 <= 100000
 x244 <= 100000
 x245 <= 100000
 x246 <= 100000
 x247 <= 100000
 x248 <= 100000
 x249 <= 100000
 x250 <= 100000
 x251 <= 100000
 x252 <= 100000
 x253 <= 88
 x254 <= 100000
 x255 <= 100000
 x256 <= 100000
 x257 <= 100000
 x258 <= 100000
 x259 <= 100000
 x260 <= 100000
 x261 <= 100000
 x262 <= 100000
 x263 <= 100000
 x264 <= 100000
 x265 <= 100000
 x266 <= 100000
 x267 <= 100000
 x268 <= 100000
 x269 <= 100000
 x270 <= 100
 x271 <= 100000
 x272 <= 100000
 x273 <= 100000
 x274 <= 100000
 x275 <= 100000
 x276 <= 100000
 x277 <= 100000
 x278 <= 100000
 x279 <= 100000
 x280 <= 100000
 x281 <= 100000
 x282 <= 100000
 x283 <= 100000
 x284 <= 100000
 x285 <= 100000
 x286 <= 100000
 x287 <= 55
 x288 <= 100000
 x289 <= 100000
 x290 <= 100000
 x291 <= 100000
 x292 <= 100000
 x293 <= 100000
 x294 <= 100000
 x295 <= 100000
 x296 <= 100000
 x297 <= 100000
 x298 <= 100000
 x299 <= 100000
 x300 <= 100000
 x301 <= 100000
 x302 <= 100000
 x303 <= 100000
 x304 <= 50
 x305 <= 100000
 x306 <= 100000
 x307 <= 100000
 x308 <= 100000
 x309 <= 100000
 x310 <= 100000
 x311 <= 100000
 x312 <= 100000
 x313 <= 100000
 x314 <= 100000
 x315 <= 100000
 x316 <= 100000
 x317 <= 100000
 x318 <= 100000
 x319 <= 100000
 x320 <= 100000
 x321 <= 26
 x322 <= 100000
 x323 <= 100000
 x324 <= 100000
 x325 <= 100000
 x326 <= 100000
 x327 <= 100000
 x328 <= 100000
 x329 <= 100000
 x330 <= 100000
 x331 <= 100000
 x332 <= 100000
 x333 <= 100000
 x334 <= 100000
 x335 <= 100000
 x336 <= 100000
 x337 <= 100000
 x338 <= 98
 x339 <= 100000
 x340 <= 100000
 x341 <= 100000
 x342 <= 100000
 x343 <= 100000
 x344 <= 100000
 x345 <= 100000
 x346 <= 100000
 x347 <= 100000
 x348 <= 100000
 x349 <= 100000
 x350 <= 100000
 x351 <= 100000
 x352 <= 100000
 x353 <= 100000
 x354 <= 100000
 x355 <= 115
 x356 <= 100000
 x357 <= 100000
 x358 <= 100000
 x359 <= 100000
 x360 <= 100000
 x361 <= 100000
 x362 <= 100000
 x363 <= 100000
 x364 <= 100000
 x365 <= 100000
 x366 <= 100000
 x367 <= 100000
 x368 <= 100000
 x369 <= 100000
 x370 <= 100000
 x371 <= 100000
 x372 <= 85
 x373 <= 100000
 x374 <= 100000
 x375 <= 100000
 x376 <= 100000
 x377 <= 100000
 x378 <= 100000
 x379 <= 100000
 x380 <= 100000
 x381 <= 100000
 x382 <= 100000
 x383 <= 100000
 x384 <= 100000
 x385 <= 100000
 x386 <= 100000
 x387 <= 100000
 x388 <= 100000
 x389 <= 95
 x390 <= 100000
 x391 <= 100000
 x392 <= 100000
 x393 <= 100000
 x394 <= 100000
 x395 <= 100000
 x396 <= 100000
 x397 <= 100000
 x398 <= 100000
 x399 <= 100000
 x400 <= 100000
 x401 <= 100000
 x402 <= 100000
 x403 <= 100000
 x404 <= 100000
 x405 <= 100000
 x406 <= 100
 x407 <= 100000
 x408 <= 100000
 x409 <= 100000
 x410 <= 100000
 x411 <= 100000
 x412 <= 100000
 x413 <= 100000
 x414 <= 100000
 x415 <= 100000
 x416 <= 100000
 x417 <= 100000
 x418 <= 100000
 x419 <= 100000
 x420 <= 100000
 x421 <= 100000
 x422 <= 100000
 x423 <= 100000
 x424 <= 100000
 x425 <= 100000
 x426 <= 100000
 x427 <= 100000
 x428 <= 100000
 x429 <= 100000
 x430 <= 100000
 x431 <= 100000
 x432 <= 100000
 x433 <= 100000
 x434 <= 100000
 x435 <= 100000
 x436 <= 100000
 x437 <= 100000
 x438 <= 100000
 x439 <= 100000
 x440 <= 100000
 x441 <= 100000
 x442 <= 100000
 x443 <= 100000
 x444 <= 100000
 x445 <= 100000
 x446 <= 100000
 x447 <= 100000
 x448 <= 100000
 x449 <= 100000
 x450 <= 100000
 x451 <= 100000
 x452 <= 100000
 x453 <= 100000
 x454 <= 100000
 x455 <= 100000
 x456 <= 100000
 x457 <= 100000
 x458 <= 100000
 x459 <= 100000
 x460 <= 100000
 x461 <= 100000
 x462 <= 100000
 x463 <= 100000
 x464 <= 100000
 x465 <= 100000
 x466 <= 100000
 x467 <= 100000
 x468 <= 100000
 x469 <= 100000
 x470 <= 100000
 x471 <= 100000
 x472 <= 100000
 x473 <= 100000
 x474 <= 100000
 x475 <= 100000
 x476 <= 100000
 x477 <= 100000
 x478 <= 100000
 x479 <= 100000
 x480 <= 100000
 x481 <= 100000
 x482 <= 100000
 x483 <= 100000
 x484 <= 100000
 x485 <= 100000
 x486 <= 100000

End
