\ Equation counts
\     Total        E        G        L        N        X        C        B
\       450      300        0      150        0        0        0        0
\ 
\ Variable counts
\                  x        b        i      s1s      s2s       sc       si
\     Total     cont   binary  integer     sos1     sos2    scont     sint
\       455      305      150        0        0        0        0        0
\ 
\ Nonzero counts
\     Total    const       NL      DLL
\      1650     1350      300        0
\ 
Minimize
 obj: b2 + b3 + b4 + b5 + b6 + b7 + b8 + b9 + b10 + b11 + b12 + b13 + b14 + b15 + b16 + b17 + b18 + b19 
  + b20 + b21 + b22 + b23 + b24 + b25 + b26 + b27 + b28 + b29 + b30 + b31 + b32 + b33 + b34 + b35 + b36 
  + b37 + b38 + b39 + b40 + b41 + b42 + b43 + b44 + b45 + b46 + b47 + b48 + b49 + b50 + b51 + b52 + b53 
  + b54 + b55 + b56 + b57 + b58 + b59 + b60 + b61 + b62 + b63 + b64 + b65 + b66 + b67 + b68 + b69 + b70 
  + b71 + b72 + b73 + b74 + b75 + b76 + b77 + b78 + b79 + b80 + b81 + b82 + b83 + b84 + b85 + b86 + b87 
  + b88 + b89 + b90 + b91 + b92 + b93 + b94 + b95 + b96 + b97 + b98 + b99 + b100 + b101 + b102 + b103 
  + b104 + b105 + b106 + b107 + b108 + b109 + b110 + b111 + b112 + b113 + b114 + b115 + b116 + b117 + b118 
  + b119 + b120 + b121 + b122 + b123 + b124 + b125 + b126 + b127 + b128 + b129 + b130 + b131 + b132 + b133 
  + b134 + b135 + b136 + b137 + b138 + b139 + b140 + b141 + b142 + b143 + b144 + b145 + b146 + b147 + b148 
  + b149 + b150 + b151 + 0 x152 + 0 x153 + 0 x154 + 0 x155 + 0 x156 + 0 x157 + 0 x158 + 0 x159 + 0 x160 
  + 0 x161 + 0 x162 + 0 x163 + 0 x164 + 0 x165 + 0 x166 + 0 x167 + 0 x168 + 0 x169 + 0 x170 + 0 x171 
  + 0 x172 + 0 x173 + 0 x174 + 0 x175 + 0 x176 + 0 x177 + 0 x178 + 0 x179 + 0 x180 + 0 x181 + 0 x182 
  + 0 x183 + 0 x184 + 0 x185 + 0 x186 + 0 x187 + 0 x188 + 0 x189 + 0 x190 + 0 x191 + 0 x192 + 0 x193 
  + 0 x194 + 0 x195 + 0 x196 + 0 x197 + 0 x198 + 0 x199 + 0 x200 + 0 x201 + 0 x202 + 0 x203 + 0 x204 
  + 0 x205 + 0 x206 + 0 x207 + 0 x208 + 0 x209 + 0 x210 + 0 x211 + 0 x212 + 0 x213 + 0 x214 + 0 x215 
  + 0 x216 + 0 x217 + 0 x218 + 0 x219 + 0 x220 + 0 x221 + 0 x222 + 0 x223 + 0 x224 + 0 x225 + 0 x226 
  + 0 x227 + 0 x228 + 0 x229 + 0 x230 + 0 x231 + 0 x232 + 0 x233 + 0 x234 + 0 x235 + 0 x236 + 0 x237 
  + 0 x238 + 0 x239 + 0 x240 + 0 x241 + 0 x242 + 0 x243 + 0 x244 + 0 x245 + 0 x246 + 0 x247 + 0 x248 
  + 0 x249 + 0 x250 + 0 x251 + 0 x252 + 0 x253 + 0 x254 + 0 x255 + 0 x256 + 0 x257 + 0 x258 + 0 x259 
  + 0 x260 + 0 x261 + 0 x262 + 0 x263 + 0 x264 + 0 x265 + 0 x266 + 0 x267 + 0 x268 + 0 x269 + 0 x270 
  + 0 x271 + 0 x272 + 0 x273 + 0 x274 + 0 x275 + 0 x276 + 0 x277 + 0 x278 + 0 x279 + 0 x280 + 0 x281 
  + 0 x282 + 0 x283 + 0 x284 + 0 x285 + 0 x286 + 0 x287 + 0 x288 + 0 x289 + 0 x290 + 0 x291 + 0 x292 
  + 0 x293 + 0 x294 + 0 x295 + 0 x296 + 0 x297 + 0 x298 + 0 x299 + 0 x300 + 0 x301 + 0 x302 + 0 x303 
  + 0 x304 + 0 x305 + 0 x306 + 0 x307 + 0 x308 + 0 x309 + 0 x310 + 0 x311 + 0 x312 + 0 x313 + 0 x314 
  + 0 x315 + 0 x316 + 0 x317 + 0 x318 + 0 x319 + 0 x320 + 0 x321 + 0 x322 + 0 x323 + 0 x324 + 0 x325 
  + 0 x326 + 0 x327 + 0 x328 + 0 x329 + 0 x330 + 0 x331 + 0 x332 + 0 x333 + 0 x334 + 0 x335 + 0 x336 
  + 0 x337 + 0 x338 + 0 x339 + 0 x340 + 0 x341 + 0 x342 + 0 x343 + 0 x344 + 0 x345 + 0 x346 + 0 x347 
  + 0 x348 + 0 x349 + 0 x350 + 0 x351 + 0 x352 + 0 x353 + 0 x354 + 0 x355 + 0 x356 + 0 x357 + 0 x358 
  + 0 x359 + 0 x360 + 0 x361 + 0 x362 + 0 x363 + 0 x364 + 0 x365 + 0 x366 + 0 x367 + 0 x368 + 0 x369 
  + 0 x370 + 0 x371 + 0 x372 + 0 x373 + 0 x374 + 0 x375 + 0 x376 + 0 x377 + 0 x378 + 0 x379 + 0 x380 
  + 0 x381 + 0 x382 + 0 x383 + 0 x384 + 0 x385 + 0 x386 + 0 x387 + 0 x388 + 0 x389 + 0 x390 + 0 x391 
  + 0 x392 + 0 x393 + 0 x394 + 0 x395 + 0 x396 + 0 x397 + 0 x398 + 0 x399 + 0 x400 + 0 x401 + 0 x402 
  + 0 x403 + 0 x404 + 0 x405 + 0 x406 + 0 x407 + 0 x408 + 0 x409 + 0 x410 + 0 x411 + 0 x412 + 0 x413 
  + 0 x414 + 0 x415 + 0 x416 + 0 x417 + 0 x418 + 0 x419 + 0 x420 + 0 x421 + 0 x422 + 0 x423 + 0 x424 
  + 0 x425 + 0 x426 + 0 x427 + 0 x428 + 0 x429 + 0 x430 + 0 x431 + 0 x432 + 0 x433 + 0 x434 + 0 x435 
  + 0 x436 + 0 x437 + 0 x438 + 0 x439 + 0 x440 + 0 x441 + 0 x442 + 0 x443 + 0 x444 + 0 x445 + 0 x446 
  + 0 x447 + 0 x448 + 0 x449 + 0 x450 + 0 x451 + 0 x452 + 0 x453 + 0 x454 + 0 x455 + 0 x456

Subject To
 e2: - 5.1 x152 - 3.5 x153 - 1.4 x154 - 0.2 x155 + x156 - x157 <= -1
 e3: - 4.9 x152 - 3 x153 - 1.4 x154 - 0.2 x155 + x156 - x158 <= -1
 e4: - 4.7 x152 - 3.2 x153 - 1.3 x154 - 0.2 x155 + x156 - x159 <= -1
 e5: - 4.6 x152 - 3.1 x153 - 1.5 x154 - 0.2 x155 + x156 - x160 <= -1
 e6: - 5 x152 - 3.6 x153 - 1.4 x154 - 0.2 x155 + x156 - x161 <= -1
 e7: - 5.4 x152 - 3.9 x153 - 1.7 x154 - 0.4 x155 + x156 - x162 <= -1
 e8: - 4.6 x152 - 3.4 x153 - 1.4 x154 - 0.3 x155 + x156 - x163 <= -1
 e9: - 5 x152 - 3.4 x153 - 1.5 x154 - 0.2 x155 + x156 - x164 <= -1
 e10: - 4.4 x152 - 2.9 x153 - 1.4 x154 - 0.2 x155 + x156 - x165 <= -1
 e11: - 4.9 x152 - 3.1 x153 - 1.5 x154 - 0.1 x155 + x156 - x166 <= -1
 e12: - 5.4 x152 - 3.7 x153 - 1.5 x154 - 0.2 x155 + x156 - x167 <= -1
 e13: - 4.8 x152 - 3.4 x153 - 1.6 x154 - 0.2 x155 + x156 - x168 <= -1
 e14: - 4.8 x152 - 3 x153 - 1.4 x154 - 0.1 x155 + x156 - x169 <= -1
 e15: - 4.3 x152 - 3 x153 - 1.1 x154 - 0.1 x155 + x156 - x170 <= -1
 e16: - 5.8 x152 - 4 x153 - 1.2 x154 - 0.2 x155 + x156 - x171 <= -1
 e17: - 5.7 x152 - 4.4 x153 - 1.5 x154 - 0.4 x155 + x156 - x172 <= -1
 e18: - 5.4 x152 - 3.9 x153 - 1.3 x154 - 0.4 x155 + x156 - x173 <= -1
 e19: - 5.1 x152 - 3.5 x153 - 1.4 x154 - 0.3 x155 + x156 - x174 <= -1
 e20: - 5.7 x152 - 3.8 x153 - 1.7 x154 - 0.3 x155 + x156 - x175 <= -1
 e21: - 5.1 x152 - 3.8 x153 - 1.5 x154 - 0.3 x155 + x156 - x176 <= -1
 e22: - 5.4 x152 - 3.4 x153 - 1.7 x154 - 0.2 x155 + x156 - x177 <= -1
 e23: - 5.1 x152 - 3.7 x153 - 1.5 x154 - 0.4 x155 + x156 - x178 <= -1
 e24: - 4.6 x152 - 3.6 x153 - x154 - 0.2 x155 + x156 - x179 <= -1
 e25: - 5.1 x152 - 3.3 x153 - 1.7 x154 - 0.5 x155 + x156 - x180 <= -1
 e26: - 4.8 x152 - 3.4 x153 - 1.9 x154 - 0.2 x155 + x156 - x181 <= -1
 e27: - 5 x152 - 3 x153 - 1.6 x154 - 0.2 x155 + x156 - x182 <= -1
 e28: - 5 x152 - 3.4 x153 - 1.6 x154 - 0.4 x155 + x156 - x183 <= -1
 e29: - 5.2 x152 - 3.5 x153 - 1.5 x154 - 0.2 x155 + x156 - x184 <= -1
 e30: - 5.2 x152 - 3.4 x153 - 1.4 x154 - 0.2 x155 + x156 - x185 <= -1
 e31: - 4.7 x152 - 3.2 x153 - 1.6 x154 - 0.2 x155 + x156 - x186 <= -1
 e32: - 4.8 x152 - 3.1 x153 - 1.6 x154 - 0.2 x155 + x156 - x187 <= -1
 e33: - 5.4 x152 - 3.4 x153 - 1.5 x154 - 0.4 x155 + x156 - x188 <= -1
 e34: - 5.2 x152 - 4.1 x153 - 1.5 x154 - 0.1 x155 + x156 - x189 <= -1
 e35: - 5.5 x152 - 4.2 x153 - 1.4 x154 - 0.2 x155 + x156 - x190 <= -1
 e36: - 4.9 x152 - 3.1 x153 - 1.5 x154 - 0.1 x155 + x156 - x191 <= -1
 e37: - 5 x152 - 3.2 x153 - 1.2 x154 - 0.2 x155 + x156 - x192 <= -1
 e38: - 5.5 x152 - 3.5 x153 - 1.3 x154 - 0.2 x155 + x156 - x193 <= -1
 e39: - 4.9 x152 - 3.1 x153 - 1.5 x154 - 0.1 x155 + x156 - x194 <= -1
 e40: - 4.4 x152 - 3 x153 - 1.3 x154 - 0.2 x155 + x156 - x195 <= -1
 e41: - 5.1 x152 - 3.4 x153 - 1.5 x154 - 0.2 x155 + x156 - x196 <= -1
 e42: - 5 x152 - 3.5 x153 - 1.3 x154 - 0.3 x155 + x156 - x197 <= -1
 e43: - 4.5 x152 - 2.3 x153 - 1.3 x154 - 0.3 x155 + x156 - x198 <= -1
 e44: - 4.4 x152 - 3.2 x153 - 1.3 x154 - 0.2 x155 + x156 - x199 <= -1
 e45: - 5 x152 - 3.5 x153 - 1.6 x154 - 0.6 x155 + x156 - x200 <= -1
 e46: - 5.1 x152 - 3.8 x153 - 1.9 x154 - 0.4 x155 + x156 - x201 <= -1
 e47: - 4.8 x152 - 3 x153 - 1.4 x154 - 0.3 x155 + x156 - x202 <= -1
 e48: - 5.1 x152 - 3.8 x153 - 1.6 x154 - 0.2 x155 + x156 - x203 <= -1
 e49: - 4.6 x152 - 3.2 x153 - 1.4 x154 - 0.2 x155 + x156 - x204 <= -1
 e50: - 5.3 x152 - 3.7 x153 - 1.5 x154 - 0.2 x155 + x156 - x205 <= -1
 e51: - 5 x152 - 3.3 x153 - 1.4 x154 - 0.2 x155 + x156 - x206 <= -1
 e52: 7 x152 + 3.2 x153 + 4.7 x154 + 1.4 x155 - x156 - x207 <= -1
 e53: 6.4 x152 + 3.2 x153 + 4.5 x154 + 1.5 x155 - x156 - x208 <= -1
 e54: 6.9 x152 + 3.1 x153 + 4.9 x154 + 1.5 x155 - x156 - x209 <= -1
 e55: 5.5 x152 + 2.3 x153 + 4 x154 + 1.3 x155 - x156 - x210 <= -1
 e56: 6.5 x152 + 2.8 x153 + 4.6 x154 + 1.5 x155 - x156 - x211 <= -1
 e57: 5.7 x152 + 2.8 x153 + 4.5 x154 + 1.3 x155 - x156 - x212 <= -1
 e58: 6.3 x152 + 3.3 x153 + 4.7 x154 + 1.6 x155 - x156 - x213 <= -1
 e59: 4.9 x152 + 2.4 x153 + 3.3 x154 + x155 - x156 - x214 <= -1
 e60: 6.6 x152 + 2.9 x153 + 4.6 x154 + 1.3 x155 - x156 - x215 <= -1
 e61: 5.2 x152 + 2.7 x153 + 3.9 x154 + 1.4 x155 - x156 - x216 <= -1
 e62: 5 x152 + 2 x153 + 3.5 x154 + x155 - x156 - x217 <= -1
 e63: 5.9 x152 + 3 x153 + 4.2 x154 + 1.5 x155 - x156 - x218 <= -1
 e64: 6 x152 + 2.2 x153 + 4 x154 + x155 - x156 - x219 <= -1
 e65: 6.1 x152 + 2.9 x153 + 4.7 x154 + 1.4 x155 - x156 - x220 <= -1
 e66: 5.6 x152 + 2.9 x153 + 3.6 x154 + 1.3 x155 - x156 - x221 <= -1
 e67: 6.7 x152 + 3.1 x153 + 4.4 x154 + 1.4 x155 - x156 - x222 <= -1
 e68: 5.6 x152 + 3 x153 + 4.5 x154 + 1.5 x155 - x156 - x223 <= -1
 e69: 5.8 x152 + 2.7 x153 + 4.1 x154 + x155 - x156 - x224 <= -1
 e70: 6.2 x152 + 2.2 x153 + 4.5 x154 + 1.5 x155 - x156 - x225 <= -1
 e71: 5.6 x152 + 2.5 x153 + 3.9 x154 + 1.1 x155 - x156 - x226 <= -1
 e72: 5.9 x152 + 3.2 x153 + 4.8 x154 + 1.8 x155 - x156 - x227 <= -1
 e73: 6.1 x152 + 2.8 x153 + 4 x154 + 1.3 x155 - x156 - x228 <= -1
 e74: 6.3 x152 + 2.5 x153 + 4.9 x154 + 1.5 x155 - x156 - x229 <= -1
 e75: 6.1 x152 + 2.8 x153 + 4.7 x154 + 1.2 x155 - x156 - x230 <= -1
 e76: 6.4 x152 + 2.9 x153 + 4.3 x154 + 1.3 x155 - x156 - x231 <= -1
 e77: 6.6 x152 + 3 x153 + 4.4 x154 + 1.4 x155 - x156 - x232 <= -1
 e78: 6.8 x152 + 2.8 x153 + 4.8 x154 + 1.4 x155 - x156 - x233 <= -1
 e79: 6.7 x152 + 3 x153 + 5 x154 + 1.7 x155 - x156 - x234 <= -1
 e80: 6 x152 + 2.9 x153 + 4.5 x154 + 1.5 x155 - x156 - x235 <= -1
 e81: 5.7 x152 + 2.6 x153 + 3.5 x154 + x155 - x156 - x236 <= -1
 e82: 5.5 x152 + 2.4 x153 + 3.8 x154 + 1.1 x155 - x156 - x237 <= -1
 e83: 5.5 x152 + 2.4 x153 + 3.7 x154 + x155 - x156 - x238 <= -1
 e84: 5.8 x152 + 2.7 x153 + 3.9 x154 + 1.2 x155 - x156 - x239 <= -1
 e85: 6 x152 + 2.7 x153 + 5.1 x154 + 1.6 x155 - x156 - x240 <= -1
 e86: 5.4 x152 + 3 x153 + 4.5 x154 + 1.5 x155 - x156 - x241 <= -1
 e87: 6 x152 + 3.4 x153 + 4.5 x154 + 1.6 x155 - x156 - x242 <= -1
 e88: 6.7 x152 + 3.1 x153 + 4.7 x154 + 1.5 x155 - x156 - x243 <= -1
 e89: 6.3 x152 + 2.3 x153 + 4.4 x154 + 1.3 x155 - x156 - x244 <= -1
 e90: 5.6 x152 + 3 x153 + 4.1 x154 + 1.3 x155 - x156 - x245 <= -1
 e91: 5.5 x152 + 2.5 x153 + 4 x154 + 1.3 x155 - x156 - x246 <= -1
 e92: 5.5 x152 + 2.6 x153 + 4.4 x154 + 1.2 x155 - x156 - x247 <= -1
 e93: 6.1 x152 + 3 x153 + 4.6 x154 + 1.4 x155 - x156 - x248 <= -1
 e94: 5.8 x152 + 2.6 x153 + 4 x154 + 1.2 x155 - x156 - x249 <= -1
 e95: 5 x152 + 2.3 x153 + 3.3 x154 + x155 - x156 - x250 <= -1
 e96: 5.6 x152 + 2.7 x153 + 4.2 x154 + 1.3 x155 - x156 - x251 <= -1
 e97: 5.7 x152 + 3 x153 + 4.2 x154 + 1.2 x155 - x156 - x252 <= -1
 e98: 5.7 x152 + 2.9 x153 + 4.2 x154 + 1.3 x155 - x156 - x253 <= -1
 e99: 6.2 x152 + 2.9 x153 + 4.3 x154 + 1.3 x155 - x156 - x254 <= -1
 e100: 5.1 x152 + 2.5 x153 + 3 x154 + 1.1 x155 - x156 - x255 <= -1
 e101: 5.7 x152 + 2.8 x153 + 4.1 x154 + 1.3 x155 - x156 - x256 <= -1
 e102: - 6.3 x152 - 3.3 x153 - 6 x154 - 2.5 x155 + x156 - x257 <= -1
 e103: - 5.8 x152 - 2.7 x153 - 5.1 x154 - 1.9 x155 + x156 - x258 <= -1
 e104: - 7.1 x152 - 3 x153 - 5.9 x154 - 2.1 x155 + x156 - x259 <= -1
 e105: - 6.3 x152 - 2.9 x153 - 5.6 x154 - 1.8 x155 + x156 - x260 <= -1
 e106: - 6.5 x152 - 3 x153 - 5.8 x154 - 2.2 x155 + x156 - x261 <= -1
 e107: - 7.6 x152 - 3 x153 - 6.6 x154 - 2.1 x155 + x156 - x262 <= -1
 e108: - 4.9 x152 - 2.5 x153 - 4.5 x154 - 1.7 x155 + x156 - x263 <= -1
 e109: - 7.3 x152 - 2.9 x153 - 6.3 x154 - 1.8 x155 + x156 - x264 <= -1
 e110: - 6.7 x152 - 2.5 x153 - 5.8 x154 - 1.8 x155 + x156 - x265 <= -1
 e111: - 7.2 x152 - 3.6 x153 - 6.1 x154 - 2.5 x155 + x156 - x266 <= -1
 e112: - 6.5 x152 - 3.2 x153 - 5.1 x154 - 2 x155 + x156 - x267 <= -1
 e113: - 6.4 x152 - 2.7 x153 - 5.3 x154 - 1.9 x155 + x156 - x268 <= -1
 e114: - 6.8 x152 - 3 x153 - 5.5 x154 - 2.1 x155 + x156 - x269 <= -1
 e115: - 5.7 x152 - 2.5 x153 - 5 x154 - 2 x155 + x156 - x270 <= -1
 e116: - 5.8 x152 - 2.8 x153 - 5.1 x154 - 2.4 x155 + x156 - x271 <= -1
 e117: - 6.4 x152 - 3.2 x153 - 5.3 x154 - 2.3 x155 + x156 - x272 <= -1
 e118: - 6.5 x152 - 3 x153 - 5.5 x154 - 1.8 x155 + x156 - x273 <= -1
 e119: - 7.7 x152 - 3.8 x153 - 6.7 x154 - 2.2 x155 + x156 - x274 <= -1
 e120: - 7.7 x152 - 2.6 x153 - 6.9 x154 - 2.3 x155 + x156 - x275 <= -1
 e121: - 6 x152 - 2.2 x153 - 5 x154 - 1.5 x155 + x156 - x276 <= -1
 e122: - 6.9 x152 - 3.2 x153 - 5.7 x154 - 2.3 x155 + x156 - x277 <= -1
 e123: - 5.6 x152 - 2.8 x153 - 4.9 x154 - 2 x155 + x156 - x278 <= -1
 e124: - 7.7 x152 - 2.8 x153 - 6.7 x154 - 2 x155 + x156 - x279 <= -1
 e125: - 6.3 x152 - 2.7 x153 - 4.9 x154 - 1.8 x155 + x156 - x280 <= -1
 e126: - 6.7 x152 - 3.3 x153 - 5.7 x154 - 2.1 x155 + x156 - x281 <= -1
 e127: - 7.2 x152 - 3.2 x153 - 6 x154 - 1.8 x155 + x156 - x282 <= -1
 e128: - 6.2 x152 - 2.8 x153 - 4.8 x154 - 1.8 x155 + x156 - x283 <= -1
 e129: - 6.1 x152 - 3 x153 - 4.9 x154 - 1.8 x155 + x156 - x284 <= -1
 e130: - 6.4 x152 - 2.8 x153 - 5.6 x154 - 2.1 x155 + x156 - x285 <= -1
 e131: - 7.2 x152 - 3 x153 - 5.8 x154 - 1.6 x155 + x156 - x286 <= -1
 e132: - 7.4 x152 - 2.8 x153 - 6.1 x154 - 1.9 x155 + x156 - x287 <= -1
 e133: - 7.9 x152 - 3.8 x153 - 6.4 x154 - 2 x155 + x156 - x288 <= -1
 e134: - 6.4 x152 - 2.8 x153 - 5.6 x154 - 2.2 x155 + x156 - x289 <= -1
 e135: - 6.3 x152 - 2.8 x153 - 5.1 x154 - 1.5 x155 + x156 - x290 <= -1
 e136: - 6.1 x152 - 2.6 x153 - 5.6 x154 - 1.4 x155 + x156 - x291 <= -1
 e137: - 7.7 x152 - 3 x153 - 6.1 x154 - 2.3 x155 + x156 - x292 <= -1
 e138: - 6.3 x152 - 3.4 x153 - 5.6 x154 - 2.4 x155 + x156 - x293 <= -1
 e139: - 6.4 x152 - 3.1 x153 - 5.5 x154 - 1.8 x155 + x156 - x294 <= -1
 e140: - 6 x152 - 3 x153 - 4.8 x154 - 1.8 x155 + x156 - x295 <= -1
 e141: - 6.9 x152 - 3.1 x153 - 5.4 x154 - 2.1 x155 + x156 - x296 <= -1
 e142: - 6.7 x152 - 3.1 x153 - 5.6 x154 - 2.4 x155 + x156 - x297 <= -1
 e143: - 6.9 x152 - 3.1 x153 - 5.1 x154 - 2.3 x155 + x156 - x298 <= -1
 e144: - 5.8 x152 - 2.7 x153 - 5.1 x154 - 1.9 x155 + x156 - x299 <= -1
 e145: - 6.8 x152 - 3.2 x153 - 5.9 x154 - 2.3 x155 + x156 - x300 <= -1
 e146: - 6.7 x152 - 3.3 x153 - 5.7 x154 - 2.5 x155 + x156 - x301 <= -1
 e147: - 6.7 x152 - 3 x153 - 5.2 x154 - 2.3 x155 + x156 - x302 <= -1
 e148: - 6.3 x152 - 2.5 x153 - 5 x154 - 1.9 x155 + x156 - x303 <= -1
 e149: - 6.5 x152 - 3 x153 - 5.2 x154 - 2 x155 + x156 - x304 <= -1
 e150: - 6.2 x152 - 3.4 x153 - 5.4 x154 - 2.3 x155 + x156 - x305 <= -1
 e151: - 5.9 x152 - 3 x153 - 5.1 x154 - 1.8 x155 + x156 - x306 <= -1
 e152: - b2 - x307 = -1
 e153: - b3 - x308 = -1
 e154: - b4 - x309 = -1
 e155: - b5 - x310 = -1
 e156: - b6 - x311 = -1
 e157: - b7 - x312 = -1
 e158: - b8 - x313 = -1
 e159: - b9 - x314 = -1
 e160: - b10 - x315 = -1
 e161: - b11 - x316 = -1
 e162: - b12 - x317 = -1
 e163: - b13 - x318 = -1
 e164: - b14 - x319 = -1
 e165: - b15 - x320 = -1
 e166: - b16 - x321 = -1
 e167: - b17 - x322 = -1
 e168: - b18 - x323 = -1
 e169: - b19 - x324 = -1
 e170: - b20 - x325 = -1
 e171: - b21 - x326 = -1
 e172: - b22 - x327 = -1
 e173: - b23 - x328 = -1
 e174: - b24 - x329 = -1
 e175: - b25 - x330 = -1
 e176: - b26 - x331 = -1
 e177: - b27 - x332 = -1
 e178: - b28 - x333 = -1
 e179: - b29 - x334 = -1
 e180: - b30 - x335 = -1
 e181: - b31 - x336 = -1
 e182: - b32 - x337 = -1
 e183: - b33 - x338 = -1
 e184: - b34 - x339 = -1
 e185: - b35 - x340 = -1
 e186: - b36 - x341 = -1
 e187: - b37 - x342 = -1
 e188: - b38 - x343 = -1
 e189: - b39 - x344 = -1
 e190: - b40 - x345 = -1
 e191: - b41 - x346 = -1
 e192: - b42 - x347 = -1
 e193: - b43 - x348 = -1
 e194: - b44 - x349 = -1
 e195: - b45 - x350 = -1
 e196: - b46 - x351 = -1
 e197: - b47 - x352 = -1
 e198: - b48 - x353 = -1
 e199: - b49 - x354 = -1
 e200: - b50 - x355 = -1
 e201: - b51 - x356 = -1
 e202: - b52 - x357 = -1
 e203: - b53 - x358 = -1
 e204: - b54 - x359 = -1
 e205: - b55 - x360 = -1
 e206: - b56 - x361 = -1
 e207: - b57 - x362 = -1
 e208: - b58 - x363 = -1
 e209: - b59 - x364 = -1
 e210: - b60 - x365 = -1
 e211: - b61 - x366 = -1
 e212: - b62 - x367 = -1
 e213: - b63 - x368 = -1
 e214: - b64 - x369 = -1
 e215: - b65 - x370 = -1
 e216: - b66 - x371 = -1
 e217: - b67 - x372 = -1
 e218: - b68 - x373 = -1
 e219: - b69 - x374 = -1
 e220: - b70 - x375 = -1
 e221: - b71 - x376 = -1
 e222: - b72 - x377 = -1
 e223: - b73 - x378 = -1
 e224: - b74 - x379 = -1
 e225: - b75 - x380 = -1
 e226: - b76 - x381 = -1
 e227: - b77 - x382 = -1
 e228: - b78 - x383 = -1
 e229: - b79 - x384 = -1
 e230: - b80 - x385 = -1
 e231: - b81 - x386 = -1
 e232: - b82 - x387 = -1
 e233: - b83 - x388 = -1
 e234: - b84 - x389 = -1
 e235: - b85 - x390 = -1
 e236: - b86 - x391 = -1
 e237: - b87 - x392 = -1
 e238: - b88 - x393 = -1
 e239: - b89 - x394 = -1
 e240: - b90 - x395 = -1
 e241: - b91 - x396 = -1
 e242: - b92 - x397 = -1
 e243: - b93 - x398 = -1
 e244: - b94 - x399 = -1
 e245: - b95 - x400 = -1
 e246: - b96 - x401 = -1
 e247: - b97 - x402 = -1
 e248: - b98 - x403 = -1
 e249: - b99 - x404 = -1
 e250: - b100 - x405 = -1
 e251: - b101 - x406 = -1
 e252: - b102 - x407 = -1
 e253: - b103 - x408 = -1
 e254: - b104 - x409 = -1
 e255: - b105 - x410 = -1
 e256: - b106 - x411 = -1
 e257: - b107 - x412 = -1
 e258: - b108 - x413 = -1
 e259: - b109 - x414 = -1
 e260: - b110 - x415 = -1
 e261: - b111 - x416 = -1
 e262: - b112 - x417 = -1
 e263: - b113 - x418 = -1
 e264: - b114 - x419 = -1
 e265: - b115 - x420 = -1
 e266: - b116 - x421 = -1
 e267: - b117 - x422 = -1
 e268: - b118 - x423 = -1
 e269: - b119 - x424 = -1
 e270: - b120 - x425 = -1
 e271: - b121 - x426 = -1
 e272: - b122 - x427 = -1
 e273: - b123 - x428 = -1
 e274: - b124 - x429 = -1
 e275: - b125 - x430 = -1
 e276: - b126 - x431 = -1
 e277: - b127 - x432 = -1
 e278: - b128 - x433 = -1
 e279: - b129 - x434 = -1
 e280: - b130 - x435 = -1
 e281: - b131 - x436 = -1
 e282: - b132 - x437 = -1
 e283: - b133 - x438 = -1
 e284: - b134 - x439 = -1
 e285: - b135 - x440 = -1
 e286: - b136 - x441 = -1
 e287: - b137 - x442 = -1
 e288: - b138 - x443 = -1
 e289: - b139 - x444 = -1
 e290: - b140 - x445 = -1
 e291: - b141 - x446 = -1
 e292: - b142 - x447 = -1
 e293: - b143 - x448 = -1
 e294: - b144 - x449 = -1
 e295: - b145 - x450 = -1
 e296: - b146 - x451 = -1
 e297: - b147 - x452 = -1
 e298: - b148 - x453 = -1
 e299: - b149 - x454 = -1
 e300: - b150 - x455 = -1
 e301: - b151 - x456 = -1
 e302: [ x157 * x307 ] = 0
 e303: [ x158 * x308 ] = 0
 e304: [ x159 * x309 ] = 0
 e305: [ x160 * x310 ] = 0
 e306: [ x161 * x311 ] = 0
 e307: [ x162 * x312 ] = 0
 e308: [ x163 * x313 ] = 0
 e309: [ x164 * x314 ] = 0
 e310: [ x165 * x315 ] = 0
 e311: [ x166 * x316 ] = 0
 e312: [ x167 * x317 ] = 0
 e313: [ x168 * x318 ] = 0
 e314: [ x169 * x319 ] = 0
 e315: [ x170 * x320 ] = 0
 e316: [ x171 * x321 ] = 0
 e317: [ x172 * x322 ] = 0
 e318: [ x173 * x323 ] = 0
 e319: [ x174 * x324 ] = 0
 e320: [ x175 * x325 ] = 0
 e321: [ x176 * x326 ] = 0
 e322: [ x177 * x327 ] = 0
 e323: [ x178 * x328 ] = 0
 e324: [ x179 * x329 ] = 0
 e325: [ x180 * x330 ] = 0
 e326: [ x181 * x331 ] = 0
 e327: [ x182 * x332 ] = 0
 e328: [ x183 * x333 ] = 0
 e329: [ x184 * x334 ] = 0
 e330: [ x185 * x335 ] = 0
 e331: [ x186 * x336 ] = 0
 e332: [ x187 * x337 ] = 0
 e333: [ x188 * x338 ] = 0
 e334: [ x189 * x339 ] = 0
 e335: [ x190 * x340 ] = 0
 e336: [ x191 * x341 ] = 0
 e337: [ x192 * x342 ] = 0
 e338: [ x193 * x343 ] = 0
 e339: [ x194 * x344 ] = 0
 e340: [ x195 * x345 ] = 0
 e341: [ x196 * x346 ] = 0
 e342: [ x197 * x347 ] = 0
 e343: [ x198 * x348 ] = 0
 e344: [ x199 * x349 ] = 0
 e345: [ x200 * x350 ] = 0
 e346: [ x201 * x351 ] = 0
 e347: [ x202 * x352 ] = 0
 e348: [ x203 * x353 ] = 0
 e349: [ x204 * x354 ] = 0
 e350: [ x205 * x355 ] = 0
 e351: [ x206 * x356 ] = 0
 e352: [ x207 * x357 ] = 0
 e353: [ x208 * x358 ] = 0
 e354: [ x209 * x359 ] = 0
 e355: [ x210 * x360 ] = 0
 e356: [ x211 * x361 ] = 0
 e357: [ x212 * x362 ] = 0
 e358: [ x213 * x363 ] = 0
 e359: [ x214 * x364 ] = 0
 e360: [ x215 * x365 ] = 0
 e361: [ x216 * x366 ] = 0
 e362: [ x217 * x367 ] = 0
 e363: [ x218 * x368 ] = 0
 e364: [ x219 * x369 ] = 0
 e365: [ x220 * x370 ] = 0
 e366: [ x221 * x371 ] = 0
 e367: [ x222 * x372 ] = 0
 e368: [ x223 * x373 ] = 0
 e369: [ x224 * x374 ] = 0
 e370: [ x225 * x375 ] = 0
 e371: [ x226 * x376 ] = 0
 e372: [ x227 * x377 ] = 0
 e373: [ x228 * x378 ] = 0
 e374: [ x229 * x379 ] = 0
 e375: [ x230 * x380 ] = 0
 e376: [ x231 * x381 ] = 0
 e377: [ x232 * x382 ] = 0
 e378: [ x233 * x383 ] = 0
 e379: [ x234 * x384 ] = 0
 e380: [ x235 * x385 ] = 0
 e381: [ x236 * x386 ] = 0
 e382: [ x237 * x387 ] = 0
 e383: [ x238 * x388 ] = 0
 e384: [ x239 * x389 ] = 0
 e385: [ x240 * x390 ] = 0
 e386: [ x241 * x391 ] = 0
 e387: [ x242 * x392 ] = 0
 e388: [ x243 * x393 ] = 0
 e389: [ x244 * x394 ] = 0
 e390: [ x245 * x395 ] = 0
 e391: [ x246 * x396 ] = 0
 e392: [ x247 * x397 ] = 0
 e393: [ x248 * x398 ] = 0
 e394: [ x249 * x399 ] = 0
 e395: [ x250 * x400 ] = 0
 e396: [ x251 * x401 ] = 0
 e397: [ x252 * x402 ] = 0
 e398: [ x253 * x403 ] = 0
 e399: [ x254 * x404 ] = 0
 e400: [ x255 * x405 ] = 0
 e401: [ x256 * x406 ] = 0
 e402: [ x257 * x407 ] = 0
 e403: [ x258 * x408 ] = 0
 e404: [ x259 * x409 ] = 0
 e405: [ x260 * x410 ] = 0
 e406: [ x261 * x411 ] = 0
 e407: [ x262 * x412 ] = 0
 e408: [ x263 * x413 ] = 0
 e409: [ x264 * x414 ] = 0
 e410: [ x265 * x415 ] = 0
 e411: [ x266 * x416 ] = 0
 e412: [ x267 * x417 ] = 0
 e413: [ x268 * x418 ] = 0
 e414: [ x269 * x419 ] = 0
 e415: [ x270 * x420 ] = 0
 e416: [ x271 * x421 ] = 0
 e417: [ x272 * x422 ] = 0
 e418: [ x273 * x423 ] = 0
 e419: [ x274 * x424 ] = 0
 e420: [ x275 * x425 ] = 0
 e421: [ x276 * x426 ] = 0
 e422: [ x277 * x427 ] = 0
 e423: [ x278 * x428 ] = 0
 e424: [ x279 * x429 ] = 0
 e425: [ x280 * x430 ] = 0
 e426: [ x281 * x431 ] = 0
 e427: [ x282 * x432 ] = 0
 e428: [ x283 * x433 ] = 0
 e429: [ x284 * x434 ] = 0
 e430: [ x285 * x435 ] = 0
 e431: [ x286 * x436 ] = 0
 e432: [ x287 * x437 ] = 0
 e433: [ x288 * x438 ] = 0
 e434: [ x289 * x439 ] = 0
 e435: [ x290 * x440 ] = 0
 e436: [ x291 * x441 ] = 0
 e437: [ x292 * x442 ] = 0
 e438: [ x293 * x443 ] = 0
 e439: [ x294 * x444 ] = 0
 e440: [ x295 * x445 ] = 0
 e441: [ x296 * x446 ] = 0
 e442: [ x297 * x447 ] = 0
 e443: [ x298 * x448 ] = 0
 e444: [ x299 * x449 ] = 0
 e445: [ x300 * x450 ] = 0
 e446: [ x301 * x451 ] = 0
 e447: [ x302 * x452 ] = 0
 e448: [ x303 * x453 ] = 0
 e449: [ x304 * x454 ] = 0
 e450: [ x305 * x455 ] = 0
 e451: [ x306 * x456 ] = 0

Bounds
 x152 Free
 x153 Free
 x154 Free
 x155 Free
 x156 Free
 x307 Free
 x308 Free
 x309 Free
 x310 Free
 x311 Free
 x312 Free
 x313 Free
 x314 Free
 x315 Free
 x316 Free
 x317 Free
 x318 Free
 x319 Free
 x320 Free
 x321 Free
 x322 Free
 x323 Free
 x324 Free
 x325 Free
 x326 Free
 x327 Free
 x328 Free
 x329 Free
 x330 Free
 x331 Free
 x332 Free
 x333 Free
 x334 Free
 x335 Free
 x336 Free
 x337 Free
 x338 Free
 x339 Free
 x340 Free
 x341 Free
 x342 Free
 x343 Free
 x344 Free
 x345 Free
 x346 Free
 x347 Free
 x348 Free
 x349 Free
 x350 Free
 x351 Free
 x352 Free
 x353 Free
 x354 Free
 x355 Free
 x356 Free
 x357 Free
 x358 Free
 x359 Free
 x360 Free
 x361 Free
 x362 Free
 x363 Free
 x364 Free
 x365 Free
 x366 Free
 x367 Free
 x368 Free
 x369 Free
 x370 Free
 x371 Free
 x372 Free
 x373 Free
 x374 Free
 x375 Free
 x376 Free
 x377 Free
 x378 Free
 x379 Free
 x380 Free
 x381 Free
 x382 Free
 x383 Free
 x384 Free
 x385 Free
 x386 Free
 x387 Free
 x388 Free
 x389 Free
 x390 Free
 x391 Free
 x392 Free
 x393 Free
 x394 Free
 x395 Free
 x396 Free
 x397 Free
 x398 Free
 x399 Free
 x400 Free
 x401 Free
 x402 Free
 x403 Free
 x404 Free
 x405 Free
 x406 Free
 x407 Free
 x408 Free
 x409 Free
 x410 Free
 x411 Free
 x412 Free
 x413 Free
 x414 Free
 x415 Free
 x416 Free
 x417 Free
 x418 Free
 x419 Free
 x420 Free
 x421 Free
 x422 Free
 x423 Free
 x424 Free
 x425 Free
 x426 Free
 x427 Free
 x428 Free
 x429 Free
 x430 Free
 x431 Free
 x432 Free
 x433 Free
 x434 Free
 x435 Free
 x436 Free
 x437 Free
 x438 Free
 x439 Free
 x440 Free
 x441 Free
 x442 Free
 x443 Free
 x444 Free
 x445 Free
 x446 Free
 x447 Free
 x448 Free
 x449 Free
 x450 Free
 x451 Free
 x452 Free
 x453 Free
 x454 Free
 x455 Free
 x456 Free

Binary
 b2 b3 b4 b5 b6 b7 b8 b9 b10 b11 b12 b13 b14 b15 b16 b17 b18 b19 b20 b21 b22 b23 b24 b25 b26
 b27 b28 b29 b30 b31 b32 b33 b34 b35 b36 b37 b38 b39 b40 b41 b42 b43 b44 b45 b46 b47 b48 b49
 b50 b51 b52 b53 b54 b55 b56 b57 b58 b59 b60 b61 b62 b63 b64 b65 b66 b67 b68 b69 b70 b71 b72
 b73 b74 b75 b76 b77 b78 b79 b80 b81 b82 b83 b84 b85 b86 b87 b88 b89 b90 b91 b92 b93 b94 b95
 b96 b97 b98 b99 b100 b101 b102 b103 b104 b105 b106 b107 b108 b109 b110 b111 b112 b113 b114
 b115 b116 b117 b118 b119 b120 b121 b122 b123 b124 b125 b126 b127 b128 b129 b130 b131 b132 b133
 b134 b135 b136 b137 b138 b139 b140 b141 b142 b143 b144 b145 b146 b147 b148 b149 b150 b151

End
