\ Equation counts
\     Total        E        G        L        N        X        C        B
\        72        0        0       72        0        0        0        0
\ 
\ Variable counts
\                  x        b        i      s1s      s2s       sc       si
\     Total     cont   binary  integer     sos1     sos2    scont     sint
\       168        0       12      156        0        0        0        0
\ 
\ Nonzero counts
\     Total    const       NL      DLL
\       792      504      288        0
\ 
Minimize
 obj: 0.1 b2 + 0.2 b3 + 0.3 b4 + 0.4 b5 + 0.5 b6 + 0.6 b7 + 0.7 b8 + 0.8 b9 + 0.9 b10 + b11 + 1.1 b12 
  + 1.2 b13 + i14 + i15 + i16 + i17 + i18 + i19 + i20 + i21 + i22 + i23 + i24 + i25 + 0 i26 + 0 i27 + 0 i28 
  + 0 i29 + 0 i30 + 0 i31 + 0 i32 + 0 i33 + 0 i34 + 0 i35 + 0 i36 + 0 i37 + 0 i38 + 0 i39 + 0 i40 + 0 i41 
  + 0 i42 + 0 i43 + 0 i44 + 0 i45 + 0 i46 + 0 i47 + 0 i48 + 0 i49 + 0 i50 + 0 i51 + 0 i52 + 0 i53 + 0 i54 
  + 0 i55 + 0 i56 + 0 i57 + 0 i58 + 0 i59 + 0 i60 + 0 i61 + 0 i62 + 0 i63 + 0 i64 + 0 i65 + 0 i66 + 0 i67 
  + 0 i68 + 0 i69 + 0 i70 + 0 i71 + 0 i72 + 0 i73 + 0 i74 + 0 i75 + 0 i76 + 0 i77 + 0 i78 + 0 i79 + 0 i80 
  + 0 i81 + 0 i82 + 0 i83 + 0 i84 + 0 i85 + 0 i86 + 0 i87 + 0 i88 + 0 i89 + 0 i90 + 0 i91 + 0 i92 + 0 i93 
  + 0 i94 + 0 i95 + 0 i96 + 0 i97 + 0 i98 + 0 i99 + 0 i100 + 0 i101 + 0 i102 + 0 i103 + 0 i104 + 0 i105 
  + 0 i106 + 0 i107 + 0 i108 + 0 i109 + 0 i110 + 0 i111 + 0 i112 + 0 i113 + 0 i114 + 0 i115 + 0 i116 
  + 0 i117 + 0 i118 + 0 i119 + 0 i120 + 0 i121 + 0 i122 + 0 i123 + 0 i124 + 0 i125 + 0 i126 + 0 i127 
  + 0 i128 + 0 i129 + 0 i130 + 0 i131 + 0 i132 + 0 i133 + 0 i134 + 0 i135 + 0 i136 + 0 i137 + 0 i138 
  + 0 i139 + 0 i140 + 0 i141 + 0 i142 + 0 i143 + 0 i144 + 0 i145 + 0 i146 + 0 i147 + 0 i148 + 0 i149 
  + 0 i150 + 0 i151 + 0 i152 + 0 i153 + 0 i154 + 0 i155 + 0 i156 + 0 i157 + 0 i158 + 0 i159 + 0 i160 
  + 0 i161 + 0 i162 + 0 i163 + 0 i164 + 0 i165 + 0 i166 + 0 i167 + 0 i168 + 0 i169

Subject To
 e2: 350 i26 + 450 i27 + 550 i28 + 650 i29 + 700 i30 + 740 i31 + 800 i32 + 840 i33 + 910 i34 + 960 i35 
  + 1010 i36 + 1060 i37 <= 2100
 e3: 350 i38 + 450 i39 + 550 i40 + 650 i41 + 700 i42 + 740 i43 + 800 i44 + 840 i45 + 910 i46 + 960 i47 
  + 1010 i48 + 1060 i49 <= 2100
 e4: 350 i50 + 450 i51 + 550 i52 + 650 i53 + 700 i54 + 740 i55 + 800 i56 + 840 i57 + 910 i58 + 960 i59 
  + 1010 i60 + 1060 i61 <= 2100
 e5: 350 i62 + 450 i63 + 550 i64 + 650 i65 + 700 i66 + 740 i67 + 800 i68 + 840 i69 + 910 i70 + 960 i71 
  + 1010 i72 + 1060 i73 <= 2100
 e6: 350 i74 + 450 i75 + 550 i76 + 650 i77 + 700 i78 + 740 i79 + 800 i80 + 840 i81 + 910 i82 + 960 i83 
  + 1010 i84 + 1060 i85 <= 2100
 e7: 350 i86 + 450 i87 + 550 i88 + 650 i89 + 700 i90 + 740 i91 + 800 i92 + 840 i93 + 910 i94 + 960 i95 
  + 1010 i96 + 1060 i97 <= 2100
 e8: 350 i98 + 450 i99 + 550 i100 + 650 i101 + 700 i102 + 740 i103 + 800 i104 + 840 i105 + 910 i106 + 960 i107 
  + 1010 i108 + 1060 i109 <= 2100
 e9: 350 i110 + 450 i111 + 550 i112 + 650 i113 + 700 i114 + 740 i115 + 800 i116 + 840 i117 + 910 i118 
  + 960 i119 + 1010 i120 + 1060 i121 <= 2100
 e10: 350 i122 + 450 i123 + 550 i124 + 650 i125 + 700 i126 + 740 i127 + 800 i128 + 840 i129 + 910 i130 
  + 960 i131 + 1010 i132 + 1060 i133 <= 2100
 e11: 350 i134 + 450 i135 + 550 i136 + 650 i137 + 700 i138 + 740 i139 + 800 i140 + 840 i141 + 910 i142 
  + 960 i143 + 1010 i144 + 1060 i145 <= 2100
 e12: 350 i146 + 450 i147 + 550 i148 + 650 i149 + 700 i150 + 740 i151 + 800 i152 + 840 i153 + 910 i154 
  + 960 i155 + 1010 i156 + 1060 i157 <= 2100
 e13: 350 i158 + 450 i159 + 550 i160 + 650 i161 + 700 i162 + 740 i163 + 800 i164 + 840 i165 + 910 i166 
  + 960 i167 + 1010 i168 + 1060 i169 <= 2100
 e14: - 350 i26 - 450 i27 - 550 i28 - 650 i29 - 700 i30 - 740 i31 - 800 i32 - 840 i33 - 910 i34 - 960 i35 
  - 1010 i36 - 1060 i37 <= -2000
 e15: - 350 i38 - 450 i39 - 550 i40 - 650 i41 - 700 i42 - 740 i43 - 800 i44 - 840 i45 - 910 i46 - 960 i47 
  - 1010 i48 - 1060 i49 <= -2000
 e16: - 350 i50 - 450 i51 - 550 i52 - 650 i53 - 700 i54 - 740 i55 - 800 i56 - 840 i57 - 910 i58 - 960 i59 
  - 1010 i60 - 1060 i61 <= -2000
 e17: - 350 i62 - 450 i63 - 550 i64 - 650 i65 - 700 i66 - 740 i67 - 800 i68 - 840 i69 - 910 i70 - 960 i71 
  - 1010 i72 - 1060 i73 <= -2000
 e18: - 350 i74 - 450 i75 - 550 i76 - 650 i77 - 700 i78 - 740 i79 - 800 i80 - 840 i81 - 910 i82 - 960 i83 
  - 1010 i84 - 1060 i85 <= -2000
 e19: - 350 i86 - 450 i87 - 550 i88 - 650 i89 - 700 i90 - 740 i91 - 800 i92 - 840 i93 - 910 i94 - 960 i95 
  - 1010 i96 - 1060 i97 <= -2000
 e20: - 350 i98 - 450 i99 - 550 i100 - 650 i101 - 700 i102 - 740 i103 - 800 i104 - 840 i105 - 910 i106 
  - 960 i107 - 1010 i108 - 1060 i109 <= -2000
 e21: - 350 i110 - 450 i111 - 550 i112 - 650 i113 - 700 i114 - 740 i115 - 800 i116 - 840 i117 - 910 i118 
  - 960 i119 - 1010 i120 - 1060 i121 <= -2000
 e22: - 350 i122 - 450 i123 - 550 i124 - 650 i125 - 700 i126 - 740 i127 - 800 i128 - 840 i129 - 910 i130 
  - 960 i131 - 1010 i132 - 1060 i133 <= -2000
 e23: - 350 i134 - 450 i135 - 550 i136 - 650 i137 - 700 i138 - 740 i139 - 800 i140 - 840 i141 - 910 i142 
  - 960 i143 - 1010 i144 - 1060 i145 <= -2000
 e24: - 350 i146 - 450 i147 - 550 i148 - 650 i149 - 700 i150 - 740 i151 - 800 i152 - 840 i153 - 910 i154 
  - 960 i155 - 1010 i156 - 1060 i157 <= -2000
 e25: - 350 i158 - 450 i159 - 550 i160 - 650 i161 - 700 i162 - 740 i163 - 800 i164 - 840 i165 - 910 i166 
  - 960 i167 - 1010 i168 - 1060 i169 <= -2000
 e26: i26 + i27 + i28 + i29 + i30 + i31 + i32 + i33 + i34 + i35 + i36 + i37 <= 5
 e27: i38 + i39 + i40 + i41 + i42 + i43 + i44 + i45 + i46 + i47 + i48 + i49 <= 5
 e28: i50 + i51 + i52 + i53 + i54 + i55 + i56 + i57 + i58 + i59 + i60 + i61 <= 5
 e29: i62 + i63 + i64 + i65 + i66 + i67 + i68 + i69 + i70 + i71 + i72 + i73 <= 5
 e30: i74 + i75 + i76 + i77 + i78 + i79 + i80 + i81 + i82 + i83 + i84 + i85 <= 5
 e31: i86 + i87 + i88 + i89 + i90 + i91 + i92 + i93 + i94 + i95 + i96 + i97 <= 5
 e32: i98 + i99 + i100 + i101 + i102 + i103 + i104 + i105 + i106 + i107 + i108 + i109 <= 5
 e33: i110 + i111 + i112 + i113 + i114 + i115 + i116 + i117 + i118 + i119 + i120 + i121 <= 5
 e34: i122 + i123 + i124 + i125 + i126 + i127 + i128 + i129 + i130 + i131 + i132 + i133 <= 5
 e35: i134 + i135 + i136 + i137 + i138 + i139 + i140 + i141 + i142 + i143 + i144 + i145 <= 5
 e36: i146 + i147 + i148 + i149 + i150 + i151 + i152 + i153 + i154 + i155 + i156 + i157 <= 5
 e37: i158 + i159 + i160 + i161 + i162 + i163 + i164 + i165 + i166 + i167 + i168 + i169 <= 5
 e38: b2 - i14 <= 0
 e39: b3 - i15 <= 0
 e40: b4 - i16 <= 0
 e41: b5 - i17 <= 0
 e42: b6 - i18 <= 0
 e43: b7 - i19 <= 0
 e44: b8 - i20 <= 0
 e45: b9 - i21 <= 0
 e46: b10 - i22 <= 0
 e47: b11 - i23 <= 0
 e48: b12 - i24 <= 0
 e49: b13 - i25 <= 0
 e50: - 48 b2 + i14 <= 0
 e51: - 48 b3 + i15 <= 0
 e52: - 48 b4 + i16 <= 0
 e53: - 48 b5 + i17 <= 0
 e54: - 48 b6 + i18 <= 0
 e55: - 48 b7 + i19 <= 0
 e56: - 48 b8 + i20 <= 0
 e57: - 48 b9 + i21 <= 0
 e58: - 48 b10 + i22 <= 0
 e59: - 48 b11 + i23 <= 0
 e60: - 48 b12 + i24 <= 0
 e61: - 48 b13 + i25 <= 0
 e62: [ - i14 * i26 - i15 * i38 - i16 * i50 - i17 * i62 - i18 * i74 - i19 * i86 - i20 * i98 - i21 * i110 
  - i22 * i122 - i23 * i134 - i24 * i146 - i25 * i158 ] <= -10
 e63: [ - i14 * i27 - i15 * i39 - i16 * i51 - i17 * i63 - i18 * i75 - i19 * i87 - i20 * i99 - i21 * i111 
  - i22 * i123 - i23 * i135 - i24 * i147 - i25 * i159 ] <= -28
 e64: [ - i14 * i28 - i15 * i40 - i16 * i52 - i17 * i64 - i18 * i76 - i19 * i88 - i20 * i100 - i21 * i112 
  - i22 * i124 - i23 * i136 - i24 * i148 - i25 * i160 ] <= -48
 e65: [ - i14 * i29 - i15 * i41 - i16 * i53 - i17 * i65 - i18 * i77 - i19 * i89 - i20 * i101 - i21 * i113 
  - i22 * i125 - i23 * i137 - i24 * i149 - i25 * i161 ] <= -28
 e66: [ - i14 * i30 - i15 * i42 - i16 * i54 - i17 * i66 - i18 * i78 - i19 * i90 - i20 * i102 - i21 * i114 
  - i22 * i126 - i23 * i138 - i24 * i150 - i25 * i162 ] <= -40
 e67: [ - i14 * i31 - i15 * i43 - i16 * i55 - i17 * i67 - i18 * i79 - i19 * i91 - i20 * i103 - i21 * i115 
  - i22 * i127 - i23 * i139 - i24 * i151 - i25 * i163 ] <= -30
 e68: [ - i14 * i32 - i15 * i44 - i16 * i56 - i17 * i68 - i18 * i80 - i19 * i92 - i20 * i104 - i21 * i116 
  - i22 * i128 - i23 * i140 - i24 * i152 - i25 * i164 ] <= -21
 e69: [ - i14 * i33 - i15 * i45 - i16 * i57 - i17 * i69 - i18 * i81 - i19 * i93 - i20 * i105 - i21 * i117 
  - i22 * i129 - i23 * i141 - i24 * i153 - i25 * i165 ] <= -22
 e70: [ - i14 * i34 - i15 * i46 - i16 * i58 - i17 * i70 - i18 * i82 - i19 * i94 - i20 * i106 - i21 * i118 
  - i22 * i130 - i23 * i142 - i24 * i154 - i25 * i166 ] <= -8
 e71: [ - i14 * i35 - i15 * i47 - i16 * i59 - i17 * i71 - i18 * i83 - i19 * i95 - i20 * i107 - i21 * i119 
  - i22 * i131 - i23 * i143 - i24 * i155 - i25 * i167 ] <= -8
 e72: [ - i14 * i36 - i15 * i48 - i16 * i60 - i17 * i72 - i18 * i84 - i19 * i96 - i20 * i108 - i21 * i120 
  - i22 * i132 - i23 * i144 - i24 * i156 - i25 * i168 ] <= -9
 e73: [ - i14 * i37 - i15 * i49 - i16 * i61 - i17 * i73 - i18 * i85 - i19 * i97 - i20 * i109 - i21 * i121 
  - i22 * i133 - i23 * i145 - i24 * i157 - i25 * i169 ] <= -8

Bounds
 i14 <= 48
 i15 <= 48
 i16 <= 48
 i17 <= 48
 i18 <= 48
 i19 <= 48
 i20 <= 48
 i21 <= 48
 i22 <= 48
 i23 <= 48
 i24 <= 48
 i25 <= 48
 i26 <= 5
 i27 <= 5
 i28 <= 5
 i29 <= 5
 i30 <= 5
 i31 <= 5
 i32 <= 5
 i33 <= 5
 i34 <= 5
 i35 <= 5
 i36 <= 5
 i37 <= 5
 i38 <= 5
 i39 <= 5
 i40 <= 5
 i41 <= 5
 i42 <= 5
 i43 <= 5
 i44 <= 5
 i45 <= 5
 i46 <= 5
 i47 <= 5
 i48 <= 5
 i49 <= 5
 i50 <= 5
 i51 <= 5
 i52 <= 5
 i53 <= 5
 i54 <= 5
 i55 <= 5
 i56 <= 5
 i57 <= 5
 i58 <= 5
 i59 <= 5
 i60 <= 5
 i61 <= 5
 i62 <= 5
 i63 <= 5
 i64 <= 5
 i65 <= 5
 i66 <= 5
 i67 <= 5
 i68 <= 5
 i69 <= 5
 i70 <= 5
 i71 <= 5
 i72 <= 5
 i73 <= 5
 i74 <= 5
 i75 <= 5
 i76 <= 5
 i77 <= 5
 i78 <= 5
 i79 <= 5
 i80 <= 5
 i81 <= 5
 i82 <= 5
 i83 <= 5
 i84 <= 5
 i85 <= 5
 i86 <= 5
 i87 <= 5
 i88 <= 5
 i89 <= 5
 i90 <= 5
 i91 <= 5
 i92 <= 5
 i93 <= 5
 i94 <= 5
 i95 <= 5
 i96 <= 5
 i97 <= 5
 i98 <= 5
 i99 <= 5
 i100 <= 5
 i101 <= 5
 i102 <= 5
 i103 <= 5
 i104 <= 5
 i105 <= 5
 i106 <= 5
 i107 <= 5
 i108 <= 5
 i109 <= 5
 i110 <= 5
 i111 <= 5
 i112 <= 5
 i113 <= 5
 i114 <= 5
 i115 <= 5
 i116 <= 5
 i117 <= 5
 i118 <= 5
 i119 <= 5
 i120 <= 5
 i121 <= 5
 i122 <= 5
 i123 <= 5
 i124 <= 5
 i125 <= 5
 i126 <= 5
 i127 <= 5
 i128 <= 5
 i129 <= 5
 i130 <= 5
 i131 <= 5
 i132 <= 5
 i133 <= 5
 i134 <= 5
 i135 <= 5
 i136 <= 5
 i137 <= 5
 i138 <= 5
 i139 <= 5
 i140 <= 5
 i141 <= 5
 i142 <= 5
 i143 <= 5
 i144 <= 5
 i145 <= 5
 i146 <= 5
 i147 <= 5
 i148 <= 5
 i149 <= 5
 i150 <= 5
 i151 <= 5
 i152 <= 5
 i153 <= 5
 i154 <= 5
 i155 <= 5
 i156 <= 5
 i157 <= 5
 i158 <= 5
 i159 <= 5
 i160 <= 5
 i161 <= 5
 i162 <= 5
 i163 <= 5
 i164 <= 5
 i165 <= 5
 i166 <= 5
 i167 <= 5
 i168 <= 5
 i169 <= 5

Binary
 b2 b3 b4 b5 b6 b7 b8 b9 b10 b11 b12 b13

General
 i14 i15 i16 i17 i18 i19 i20 i21 i22 i23 i24 i25 i26 i27 i28 i29 i30 i31 i32 i33 i34 i35 i36
 i37 i38 i39 i40 i41 i42 i43 i44 i45 i46 i47 i48 i49 i50 i51 i52 i53 i54 i55 i56 i57 i58 i59
 i60 i61 i62 i63 i64 i65 i66 i67 i68 i69 i70 i71 i72 i73 i74 i75 i76 i77 i78 i79 i80 i81 i82
 i83 i84 i85 i86 i87 i88 i89 i90 i91 i92 i93 i94 i95 i96 i97 i98 i99 i100 i101 i102 i103 i104
 i105 i106 i107 i108 i109 i110 i111 i112 i113 i114 i115 i116 i117 i118 i119 i120 i121 i122 i123
 i124 i125 i126 i127 i128 i129 i130 i131 i132 i133 i134 i135 i136 i137 i138 i139 i140 i141 i142
 i143 i144 i145 i146 i147 i148 i149 i150 i151 i152 i153 i154 i155 i156 i157 i158 i159 i160 i161
 i162 i163 i164 i165 i166 i167 i168 i169

End
