\ Equation counts
\     Total        E        G        L        N        X        C        B
\       198      198        0        0        0        0        0        0
\ 
\ Variable counts
\                  x        b        i      s1s      s2s       sc       si
\     Total     cont   binary  integer     sos1     sos2    scont     sint
\       297      297        0        0        0        0        0        0
\ 
\ Nonzero counts
\     Total    const       NL      DLL
\       788      392      396        0
\ 
Minimize
 obj: 0 x2 + 0 x3 + 0 x4 + 0 x5 + 0 x6 + 0 x7 + 0 x8 + 0 x9 + 0 x10 + 0 x11 + 0 x12 + 0 x13 + 0 x14 + 0 x15 
  + 0 x16 + 0 x17 + 0 x18 + 0 x19 + 0 x20 + 0 x21 + 0 x22 + 0 x23 + 0 x24 + 0 x25 + 0 x26 + 0 x27 + 0 x28 
  + 0 x29 + 0 x30 + 0 x31 + 0 x32 + 0 x33 + 0 x34 + 0 x35 + 0 x36 + 0 x37 + 0 x38 + 0 x39 + 0 x40 + 0 x41 
  + 0 x42 + 0 x43 + 0 x44 + 0 x45 + 0 x46 + 0 x47 + 0 x48 + 0 x49 + 0 x50 + 0 x51 + 0 x52 + 0 x53 + 0 x54 
  + 0 x55 + 0 x56 + 0 x57 + 0 x58 + 0 x59 + 0 x60 + 0 x61 + 0 x62 + 0 x63 + 0 x64 + 0 x65 + 0 x66 + 0 x67 
  + 0 x68 + 0 x69 + 0 x70 + 0 x71 + 0 x72 + 0 x73 + 0 x74 + 0 x75 + 0 x76 + 0 x77 + 0 x78 + 0 x79 + 0 x80 
  + 0 x81 + 0 x82 + 0 x83 + 0 x84 + 0 x85 + 0 x86 + 0 x87 + 0 x88 + 0 x89 + 0 x90 + 0 x91 + 0 x92 + 0 x93 
  + 0 x94 + 0 x95 + 0 x96 + 0 x97 + 0 x98 + 0 x99 + 0 x100 + 0 x101 + x102 + 0 x103 + 0 x104 + 0 x105 
  + 0 x106 + 0 x107 + 0 x108 + 0 x109 + 0 x110 + 0 x111 + 0 x112 + 0 x113 + 0 x114 + 0 x115 + 0 x116 
  + 0 x117 + 0 x118 + 0 x119 + 0 x120 + 0 x121 + 0 x122 + 0 x123 + 0 x124 + 0 x125 + 0 x126 + 0 x127 
  + 0 x128 + 0 x129 + 0 x130 + 0 x131 + 0 x132 + 0 x133 + 0 x134 + 0 x135 + 0 x136 + 0 x137 + 0 x138 
  + 0 x139 + 0 x140 + 0 x141 + 0 x142 + 0 x143 + 0 x144 + 0 x145 + 0 x146 + 0 x147 + 0 x148 + 0 x149 
  + 0 x150 + 0 x151 + 0 x152 + 0 x153 + 0 x154 + 0 x155 + 0 x156 + 0 x157 + 0 x158 + 0 x159 + 0 x160 
  + 0 x161 + 0 x162 + 0 x163 + 0 x164 + 0 x165 + 0 x166 + 0 x167 + 0 x168 + 0 x169 + 0 x170 + 0 x171 
  + 0 x172 + 0 x173 + 0 x174 + 0 x175 + 0 x176 + 0 x177 + 0 x178 + 0 x179 + 0 x180 + 0 x181 + 0 x182 
  + 0 x183 + 0 x184 + 0 x185 + 0 x186 + 0 x187 + 0 x188 + 0 x189 + 0 x190 + 0 x191 + 0 x192 + 0 x193 
  + 0 x194 + 0 x195 + 0 x196 + 0 x197 + 0 x198 + 0 x199 + 0 x200 + 0 x201 + 0 x202 + 0 x203 + 0 x204 
  + 0 x205 + 0 x206 + 0 x207 + 0 x208 + 0 x209 + 0 x210 + 0 x211 + 0 x212 + 0 x213 + 0 x214 + 0 x215 
  + 0 x216 + 0 x217 + 0 x218 + 0 x219 + 0 x220 + 0 x221 + 0 x222 + 0 x223 + 0 x224 + 0 x225 + 0 x226 
  + 0 x227 + 0 x228 + 0 x229 + 0 x230 + 0 x231 + 0 x232 + 0 x233 + 0 x234 + 0 x235 + 0 x236 + 0 x237 
  + 0 x238 + 0 x239 + 0 x240 + 0 x241 + 0 x242 + 0 x243 + 0 x244 + 0 x245 + 0 x246 + 0 x247 + 0 x248 
  + 0 x249 + 0 x250 + 0 x251 + 0 x252 + 0 x253 + 0 x254 + 0 x255 + 0 x256 + 0 x257 + 0 x258 + 0 x259 
  + 0 x260 + 0 x261 + 0 x262 + 0 x263 + 0 x264 + 0 x265 + 0 x266 + 0 x267 + 0 x268 + 0 x269 + 0 x270 
  + 0 x271 + 0 x272 + 0 x273 + 0 x274 + 0 x275 + 0 x276 + 0 x277 + 0 x278 + 0 x279 + 0 x280 + 0 x281 
  + 0 x282 + 0 x283 + 0 x284 + 0 x285 + 0 x286 + 0 x287 + 0 x288 + 0 x289 + 0 x290 + 0 x291 + 0 x292 
  + 0 x293 + 0 x294 + 0 x295 + 0 x296 + 0 x297 + 0 x298

Subject To
 e2: 100 x103 + [ - x102 * x201 ] = 0
 e3: - 100 x103 + 100 x104 + [ - x102 * x202 ] = 0
 e4: - 100 x104 + 100 x105 + [ - x102 * x203 ] = 0
 e5: - 100 x105 + 100 x106 + [ - x102 * x204 ] = 0
 e6: - 100 x106 + 100 x107 + [ - x102 * x205 ] = 0
 e7: - 100 x107 + 100 x108 + [ - x102 * x206 ] = 0
 e8: - 100 x108 + 100 x109 + [ - x102 * x207 ] = 0
 e9: - 100 x109 + 100 x110 + [ - x102 * x208 ] = 0
 e10: - 100 x110 + 100 x111 + [ - x102 * x209 ] = 0
 e11: - 100 x111 + 100 x112 + [ - x102 * x210 ] = 0
 e12: - 100 x112 + 100 x113 + [ - x102 * x211 ] = 0
 e13: - 100 x113 + 100 x114 + [ - x102 * x212 ] = 0
 e14: - 100 x114 + 100 x115 + [ - x102 * x213 ] = 0
 e15: - 100 x115 + 100 x116 + [ - x102 * x214 ] = 0
 e16: - 100 x116 + 100 x117 + [ - x102 * x215 ] = 0
 e17: - 100 x117 + 100 x118 + [ - x102 * x216 ] = 0
 e18: - 100 x118 + 100 x119 + [ - x102 * x217 ] = 0
 e19: - 100 x119 + 100 x120 + [ - x102 * x218 ] = 0
 e20: - 100 x120 + 100 x121 + [ - x102 * x219 ] = 0
 e21: - 100 x121 + 100 x122 + [ - x102 * x220 ] = 0
 e22: - 100 x122 + 100 x123 + [ - x102 * x221 ] = 0
 e23: - 100 x123 + 100 x124 + [ - x102 * x222 ] = 0
 e24: - 100 x124 + 100 x125 + [ - x102 * x223 ] = 0
 e25: - 100 x125 + 100 x126 + [ - x102 * x224 ] = 0
 e26: - 100 x126 + 100 x127 + [ - x102 * x225 ] = 0
 e27: - 100 x127 + 100 x128 + [ - x102 * x226 ] = 0
 e28: - 100 x128 + 100 x129 + [ - x102 * x227 ] = 0
 e29: - 100 x129 + 100 x130 + [ - x102 * x228 ] = 0
 e30: - 100 x130 + 100 x131 + [ - x102 * x229 ] = 0
 e31: - 100 x131 + 100 x132 + [ - x102 * x230 ] = 0
 e32: - 100 x132 + 100 x133 + [ - x102 * x231 ] = 0
 e33: - 100 x133 + 100 x134 + [ - x102 * x232 ] = 0
 e34: - 100 x134 + 100 x135 + [ - x102 * x233 ] = 0
 e35: - 100 x135 + 100 x136 + [ - x102 * x234 ] = 0
 e36: - 100 x136 + 100 x137 + [ - x102 * x235 ] = 0
 e37: - 100 x137 + 100 x138 + [ - x102 * x236 ] = 0
 e38: - 100 x138 + 100 x139 + [ - x102 * x237 ] = 0
 e39: - 100 x139 + 100 x140 + [ - x102 * x238 ] = 0
 e40: - 100 x140 + 100 x141 + [ - x102 * x239 ] = 0
 e41: - 100 x141 + 100 x142 + [ - x102 * x240 ] = 0
 e42: - 100 x142 + 100 x143 + [ - x102 * x241 ] = 0
 e43: - 100 x143 + 100 x144 + [ - x102 * x242 ] = 0
 e44: - 100 x144 + 100 x145 + [ - x102 * x243 ] = 0
 e45: - 100 x145 + 100 x146 + [ - x102 * x244 ] = 0
 e46: - 100 x146 + 100 x147 + [ - x102 * x245 ] = 0
 e47: - 100 x147 + 100 x148 + [ - x102 * x246 ] = 0
 e48: - 100 x148 + 100 x149 + [ - x102 * x247 ] = 0
 e49: - 100 x149 + 100 x150 + [ - x102 * x248 ] = 0
 e50: - 100 x150 + 100 x151 + [ - x102 * x249 ] = 0
 e51: - 100 x151 + 100 x152 + [ - x102 * x250 ] = 0
 e52: - 100 x152 + 100 x153 + [ - x102 * x251 ] = 0
 e53: - 100 x153 + 100 x154 + [ - x102 * x252 ] = 0
 e54: - 100 x154 + 100 x155 + [ - x102 * x253 ] = 0
 e55: - 100 x155 + 100 x156 + [ - x102 * x254 ] = 0
 e56: - 100 x156 + 100 x157 + [ - x102 * x255 ] = 0
 e57: - 100 x157 + 100 x158 + [ - x102 * x256 ] = 0
 e58: - 100 x158 + 100 x159 + [ - x102 * x257 ] = 0
 e59: - 100 x159 + 100 x160 + [ - x102 * x258 ] = 0
 e60: - 100 x160 + 100 x161 + [ - x102 * x259 ] = 0
 e61: - 100 x161 + 100 x162 + [ - x102 * x260 ] = 0
 e62: - 100 x162 + 100 x163 + [ - x102 * x261 ] = 0
 e63: - 100 x163 + 100 x164 + [ - x102 * x262 ] = 0
 e64: - 100 x164 + 100 x165 + [ - x102 * x263 ] = 0
 e65: - 100 x165 + 100 x166 + [ - x102 * x264 ] = 0
 e66: - 100 x166 + 100 x167 + [ - x102 * x265 ] = 0
 e67: - 100 x167 + 100 x168 + [ - x102 * x266 ] = 0
 e68: - 100 x168 + 100 x169 + [ - x102 * x267 ] = 0
 e69: - 100 x169 + 100 x170 + [ - x102 * x268 ] = 0
 e70: - 100 x170 + 100 x171 + [ - x102 * x269 ] = 0
 e71: - 100 x171 + 100 x172 + [ - x102 * x270 ] = 0
 e72: - 100 x172 + 100 x173 + [ - x102 * x271 ] = 0
 e73: - 100 x173 + 100 x174 + [ - x102 * x272 ] = 0
 e74: - 100 x174 + 100 x175 + [ - x102 * x273 ] = 0
 e75: - 100 x175 + 100 x176 + [ - x102 * x274 ] = 0
 e76: - 100 x176 + 100 x177 + [ - x102 * x275 ] = 0
 e77: - 100 x177 + 100 x178 + [ - x102 * x276 ] = 0
 e78: - 100 x178 + 100 x179 + [ - x102 * x277 ] = 0
 e79: - 100 x179 + 100 x180 + [ - x102 * x278 ] = 0
 e80: - 100 x180 + 100 x181 + [ - x102 * x279 ] = 0
 e81: - 100 x181 + 100 x182 + [ - x102 * x280 ] = 0
 e82: - 100 x182 + 100 x183 + [ - x102 * x281 ] = 0
 e83: - 100 x183 + 100 x184 + [ - x102 * x282 ] = 0
 e84: - 100 x184 + 100 x185 + [ - x102 * x283 ] = 0
 e85: - 100 x185 + 100 x186 + [ - x102 * x284 ] = 0
 e86: - 100 x186 + 100 x187 + [ - x102 * x285 ] = 0
 e87: - 100 x187 + 100 x188 + [ - x102 * x286 ] = 0
 e88: - 100 x188 + 100 x189 + [ - x102 * x287 ] = 0
 e89: - 100 x189 + 100 x190 + [ - x102 * x288 ] = 0
 e90: - 100 x190 + 100 x191 + [ - x102 * x289 ] = 0
 e91: - 100 x191 + 100 x192 + [ - x102 * x290 ] = 0
 e92: - 100 x192 + 100 x193 + [ - x102 * x291 ] = 0
 e93: - 100 x193 + 100 x194 + [ - x102 * x292 ] = 0
 e94: - 100 x194 + 100 x195 + [ - x102 * x293 ] = 0
 e95: - 100 x195 + 100 x196 + [ - x102 * x294 ] = 0
 e96: - 100 x196 + 100 x197 + [ - x102 * x295 ] = 0
 e97: - 100 x197 + 100 x198 + [ - x102 * x296 ] = 0
 e98: - 100 x198 + 100 x199 + [ - x102 * x297 ] = 0
 e99: - 100 x199 + [ - x102 * x298 ] = -10000
 e100: - 100 x200 + [ - x2 * x102 ] = 0
 e101: 100 x201 + [ - x3 * x102 ] = 0
 e102: - 100 x201 + 100 x202 + [ - x4 * x102 ] = 0
 e103: - 100 x202 + 100 x203 + [ - x5 * x102 ] = 0
 e104: - 100 x203 + 100 x204 + [ - x6 * x102 ] = 0
 e105: - 100 x204 + 100 x205 + [ - x7 * x102 ] = 0
 e106: - 100 x205 + 100 x206 + [ - x8 * x102 ] = 0
 e107: - 100 x206 + 100 x207 + [ - x9 * x102 ] = 0
 e108: - 100 x207 + 100 x208 + [ - x10 * x102 ] = 0
 e109: - 100 x208 + 100 x209 + [ - x11 * x102 ] = 0
 e110: - 100 x209 + 100 x210 + [ - x12 * x102 ] = 0
 e111: - 100 x210 + 100 x211 + [ - x13 * x102 ] = 0
 e112: - 100 x211 + 100 x212 + [ - x14 * x102 ] = 0
 e113: - 100 x212 + 100 x213 + [ - x15 * x102 ] = 0
 e114: - 100 x213 + 100 x214 + [ - x16 * x102 ] = 0
 e115: - 100 x214 + 100 x215 + [ - x17 * x102 ] = 0
 e116: - 100 x215 + 100 x216 + [ - x18 * x102 ] = 0
 e117: - 100 x216 + 100 x217 + [ - x19 * x102 ] = 0
 e118: - 100 x217 + 100 x218 + [ - x20 * x102 ] = 0
 e119: - 100 x218 + 100 x219 + [ - x21 * x102 ] = 0
 e120: - 100 x219 + 100 x220 + [ - x22 * x102 ] = 0
 e121: - 100 x220 + 100 x221 + [ - x23 * x102 ] = 0
 e122: - 100 x221 + 100 x222 + [ - x24 * x102 ] = 0
 e123: - 100 x222 + 100 x223 + [ - x25 * x102 ] = 0
 e124: - 100 x223 + 100 x224 + [ - x26 * x102 ] = 0
 e125: - 100 x224 + 100 x225 + [ - x27 * x102 ] = 0
 e126: - 100 x225 + 100 x226 + [ - x28 * x102 ] = 0
 e127: - 100 x226 + 100 x227 + [ - x29 * x102 ] = 0
 e128: - 100 x227 + 100 x228 + [ - x30 * x102 ] = 0
 e129: - 100 x228 + 100 x229 + [ - x31 * x102 ] = 0
 e130: - 100 x229 + 100 x230 + [ - x32 * x102 ] = 0
 e131: - 100 x230 + 100 x231 + [ - x33 * x102 ] = 0
 e132: - 100 x231 + 100 x232 + [ - x34 * x102 ] = 0
 e133: - 100 x232 + 100 x233 + [ - x35 * x102 ] = 0
 e134: - 100 x233 + 100 x234 + [ - x36 * x102 ] = 0
 e135: - 100 x234 + 100 x235 + [ - x37 * x102 ] = 0
 e136: - 100 x235 + 100 x236 + [ - x38 * x102 ] = 0
 e137: - 100 x236 + 100 x237 + [ - x39 * x102 ] = 0
 e138: - 100 x237 + 100 x238 + [ - x40 * x102 ] = 0
 e139: - 100 x238 + 100 x239 + [ - x41 * x102 ] = 0
 e140: - 100 x239 + 100 x240 + [ - x42 * x102 ] = 0
 e141: - 100 x240 + 100 x241 + [ - x43 * x102 ] = 0
 e142: - 100 x241 + 100 x242 + [ - x44 * x102 ] = 0
 e143: - 100 x242 + 100 x243 + [ - x45 * x102 ] = 0
 e144: - 100 x243 + 100 x244 + [ - x46 * x102 ] = 0
 e145: - 100 x244 + 100 x245 + [ - x47 * x102 ] = 0
 e146: - 100 x245 + 100 x246 + [ - x48 * x102 ] = 0
 e147: - 100 x246 + 100 x247 + [ - x49 * x102 ] = 0
 e148: - 100 x247 + 100 x248 + [ - x50 * x102 ] = 0
 e149: - 100 x248 + 100 x249 + [ - x51 * x102 ] = 0
 e150: - 100 x249 + 100 x250 + [ - x52 * x102 ] = 0
 e151: - 100 x250 + 100 x251 + [ - x53 * x102 ] = 0
 e152: - 100 x251 + 100 x252 + [ - x54 * x102 ] = 0
 e153: - 100 x252 + 100 x253 + [ - x55 * x102 ] = 0
 e154: - 100 x253 + 100 x254 + [ - x56 * x102 ] = 0
 e155: - 100 x254 + 100 x255 + [ - x57 * x102 ] = 0
 e156: - 100 x255 + 100 x256 + [ - x58 * x102 ] = 0
 e157: - 100 x256 + 100 x257 + [ - x59 * x102 ] = 0
 e158: - 100 x257 + 100 x258 + [ - x60 * x102 ] = 0
 e159: - 100 x258 + 100 x259 + [ - x61 * x102 ] = 0
 e160: - 100 x259 + 100 x260 + [ - x62 * x102 ] = 0
 e161: - 100 x260 + 100 x261 + [ - x63 * x102 ] = 0
 e162: - 100 x261 + 100 x262 + [ - x64 * x102 ] = 0
 e163: - 100 x262 + 100 x263 + [ - x65 * x102 ] = 0
 e164: - 100 x263 + 100 x264 + [ - x66 * x102 ] = 0
 e165: - 100 x264 + 100 x265 + [ - x67 * x102 ] = 0
 e166: - 100 x265 + 100 x266 + [ - x68 * x102 ] = 0
 e167: - 100 x266 + 100 x267 + [ - x69 * x102 ] = 0
 e168: - 100 x267 + 100 x268 + [ - x70 * x102 ] = 0
 e169: - 100 x268 + 100 x269 + [ - x71 * x102 ] = 0
 e170: - 100 x269 + 100 x270 + [ - x72 * x102 ] = 0
 e171: - 100 x270 + 100 x271 + [ - x73 * x102 ] = 0
 e172: - 100 x271 + 100 x272 + [ - x74 * x102 ] = 0
 e173: - 100 x272 + 100 x273 + [ - x75 * x102 ] = 0
 e174: - 100 x273 + 100 x274 + [ - x76 * x102 ] = 0
 e175: - 100 x274 + 100 x275 + [ - x77 * x102 ] = 0
 e176: - 100 x275 + 100 x276 + [ - x78 * x102 ] = 0
 e177: - 100 x276 + 100 x277 + [ - x79 * x102 ] = 0
 e178: - 100 x277 + 100 x278 + [ - x80 * x102 ] = 0
 e179: - 100 x278 + 100 x279 + [ - x81 * x102 ] = 0
 e180: - 100 x279 + 100 x280 + [ - x82 * x102 ] = 0
 e181: - 100 x280 + 100 x281 + [ - x83 * x102 ] = 0
 e182: - 100 x281 + 100 x282 + [ - x84 * x102 ] = 0
 e183: - 100 x282 + 100 x283 + [ - x85 * x102 ] = 0
 e184: - 100 x283 + 100 x284 + [ - x86 * x102 ] = 0
 e185: - 100 x284 + 100 x285 + [ - x87 * x102 ] = 0
 e186: - 100 x285 + 100 x286 + [ - x88 * x102 ] = 0
 e187: - 100 x286 + 100 x287 + [ - x89 * x102 ] = 0
 e188: - 100 x287 + 100 x288 + [ - x90 * x102 ] = 0
 e189: - 100 x288 + 100 x289 + [ - x91 * x102 ] = 0
 e190: - 100 x289 + 100 x290 + [ - x92 * x102 ] = 0
 e191: - 100 x290 + 100 x291 + [ - x93 * x102 ] = 0
 e192: - 100 x291 + 100 x292 + [ - x94 * x102 ] = 0
 e193: - 100 x292 + 100 x293 + [ - x95 * x102 ] = 0
 e194: - 100 x293 + 100 x294 + [ - x96 * x102 ] = 0
 e195: - 100 x294 + 100 x295 + [ - x97 * x102 ] = 0
 e196: - 100 x295 + 100 x296 + [ - x98 * x102 ] = 0
 e197: - 100 x296 + 100 x297 + [ - x99 * x102 ] = 0
 e198: - 100 x297 + 100 x298 + [ - x100 * x102 ] = 0
 e199: - 100 x298 + [ - x101 * x102 ] = 0

Bounds
 -1 <= x2 <= 1
 -1 <= x3 <= 1
 -1 <= x4 <= 1
 -1 <= x5 <= 1
 -1 <= x6 <= 1
 -1 <= x7 <= 1
 -1 <= x8 <= 1
 -1 <= x9 <= 1
 -1 <= x10 <= 1
 -1 <= x11 <= 1
 -1 <= x12 <= 1
 -1 <= x13 <= 1
 -1 <= x14 <= 1
 -1 <= x15 <= 1
 -1 <= x16 <= 1
 -1 <= x17 <= 1
 -1 <= x18 <= 1
 -1 <= x19 <= 1
 -1 <= x20 <= 1
 -1 <= x21 <= 1
 -1 <= x22 <= 1
 -1 <= x23 <= 1
 -1 <= x24 <= 1
 -1 <= x25 <= 1
 -1 <= x26 <= 1
 -1 <= x27 <= 1
 -1 <= x28 <= 1
 -1 <= x29 <= 1
 -1 <= x30 <= 1
 -1 <= x31 <= 1
 -1 <= x32 <= 1
 -1 <= x33 <= 1
 -1 <= x34 <= 1
 -1 <= x35 <= 1
 -1 <= x36 <= 1
 -1 <= x37 <= 1
 -1 <= x38 <= 1
 -1 <= x39 <= 1
 -1 <= x40 <= 1
 -1 <= x41 <= 1
 -1 <= x42 <= 1
 -1 <= x43 <= 1
 -1 <= x44 <= 1
 -1 <= x45 <= 1
 -1 <= x46 <= 1
 -1 <= x47 <= 1
 -1 <= x48 <= 1
 -1 <= x49 <= 1
 -1 <= x50 <= 1
 -1 <= x51 <= 1
 -1 <= x52 <= 1
 -1 <= x53 <= 1
 -1 <= x54 <= 1
 -1 <= x55 <= 1
 -1 <= x56 <= 1
 -1 <= x57 <= 1
 -1 <= x58 <= 1
 -1 <= x59 <= 1
 -1 <= x60 <= 1
 -1 <= x61 <= 1
 -1 <= x62 <= 1
 -1 <= x63 <= 1
 -1 <= x64 <= 1
 -1 <= x65 <= 1
 -1 <= x66 <= 1
 -1 <= x67 <= 1
 -1 <= x68 <= 1
 -1 <= x69 <= 1
 -1 <= x70 <= 1
 -1 <= x71 <= 1
 -1 <= x72 <= 1
 -1 <= x73 <= 1
 -1 <= x74 <= 1
 -1 <= x75 <= 1
 -1 <= x76 <= 1
 -1 <= x77 <= 1
 -1 <= x78 <= 1
 -1 <= x79 <= 1
 -1 <= x80 <= 1
 -1 <= x81 <= 1
 -1 <= x82 <= 1
 -1 <= x83 <= 1
 -1 <= x84 <= 1
 -1 <= x85 <= 1
 -1 <= x86 <= 1
 -1 <= x87 <= 1
 -1 <= x88 <= 1
 -1 <= x89 <= 1
 -1 <= x90 <= 1
 -1 <= x91 <= 1
 -1 <= x92 <= 1
 -1 <= x93 <= 1
 -1 <= x94 <= 1
 -1 <= x95 <= 1
 -1 <= x96 <= 1
 -1 <= x97 <= 1
 -1 <= x98 <= 1
 -1 <= x99 <= 1
 -1 <= x100 <= 1
 -1 <= x101 <= 1
 x102 Free
 x103 Free
 x104 Free
 x105 Free
 x106 Free
 x107 Free
 x108 Free
 x109 Free
 x110 Free
 x111 Free
 x112 Free
 x113 Free
 x114 Free
 x115 Free
 x116 Free
 x117 Free
 x118 Free
 x119 Free
 x120 Free
 x121 Free
 x122 Free
 x123 Free
 x124 Free
 x125 Free
 x126 Free
 x127 Free
 x128 Free
 x129 Free
 x130 Free
 x131 Free
 x132 Free
 x133 Free
 x134 Free
 x135 Free
 x136 Free
 x137 Free
 x138 Free
 x139 Free
 x140 Free
 x141 Free
 x142 Free
 x143 Free
 x144 Free
 x145 Free
 x146 Free
 x147 Free
 x148 Free
 x149 Free
 x150 Free
 x151 Free
 x152 Free
 x153 Free
 x154 Free
 x155 Free
 x156 Free
 x157 Free
 x158 Free
 x159 Free
 x160 Free
 x161 Free
 x162 Free
 x163 Free
 x164 Free
 x165 Free
 x166 Free
 x167 Free
 x168 Free
 x169 Free
 x170 Free
 x171 Free
 x172 Free
 x173 Free
 x174 Free
 x175 Free
 x176 Free
 x177 Free
 x178 Free
 x179 Free
 x180 Free
 x181 Free
 x182 Free
 x183 Free
 x184 Free
 x185 Free
 x186 Free
 x187 Free
 x188 Free
 x189 Free
 x190 Free
 x191 Free
 x192 Free
 x193 Free
 x194 Free
 x195 Free
 x196 Free
 x197 Free
 x198 Free
 x199 Free
 -5 <= x200 <= 5
 -5 <= x201 <= 5
 -5 <= x202 <= 5
 -5 <= x203 <= 5
 -5 <= x204 <= 5
 -5 <= x205 <= 5
 -5 <= x206 <= 5
 -5 <= x207 <= 5
 -5 <= x208 <= 5
 -5 <= x209 <= 5
 -5 <= x210 <= 5
 -5 <= x211 <= 5
 -5 <= x212 <= 5
 -5 <= x213 <= 5
 -5 <= x214 <= 5
 -5 <= x215 <= 5
 -5 <= x216 <= 5
 -5 <= x217 <= 5
 -5 <= x218 <= 5
 -5 <= x219 <= 5
 -5 <= x220 <= 5
 -5 <= x221 <= 5
 -5 <= x222 <= 5
 -5 <= x223 <= 5
 -5 <= x224 <= 5
 -5 <= x225 <= 5
 -5 <= x226 <= 5
 -5 <= x227 <= 5
 -5 <= x228 <= 5
 -5 <= x229 <= 5
 -5 <= x230 <= 5
 -5 <= x231 <= 5
 -5 <= x232 <= 5
 -5 <= x233 <= 5
 -5 <= x234 <= 5
 -5 <= x235 <= 5
 -5 <= x236 <= 5
 -5 <= x237 <= 5
 -5 <= x238 <= 5
 -5 <= x239 <= 5
 -5 <= x240 <= 5
 -5 <= x241 <= 5
 -5 <= x242 <= 5
 -5 <= x243 <= 5
 -5 <= x244 <= 5
 -5 <= x245 <= 5
 -5 <= x246 <= 5
 -5 <= x247 <= 5
 -5 <= x248 <= 5
 -5 <= x249 <= 5
 -5 <= x250 <= 5
 -5 <= x251 <= 5
 -5 <= x252 <= 5
 -5 <= x253 <= 5
 -5 <= x254 <= 5
 -5 <= x255 <= 5
 -5 <= x256 <= 5
 -5 <= x257 <= 5
 -5 <= x258 <= 5
 -5 <= x259 <= 5
 -5 <= x260 <= 5
 -5 <= x261 <= 5
 -5 <= x262 <= 5
 -5 <= x263 <= 5
 -5 <= x264 <= 5
 -5 <= x265 <= 5
 -5 <= x266 <= 5
 -5 <= x267 <= 5
 -5 <= x268 <= 5
 -5 <= x269 <= 5
 -5 <= x270 <= 5
 -5 <= x271 <= 5
 -5 <= x272 <= 5
 -5 <= x273 <= 5
 -5 <= x274 <= 5
 -5 <= x275 <= 5
 -5 <= x276 <= 5
 -5 <= x277 <= 5
 -5 <= x278 <= 5
 -5 <= x279 <= 5
 -5 <= x280 <= 5
 -5 <= x281 <= 5
 -5 <= x282 <= 5
 -5 <= x283 <= 5
 -5 <= x284 <= 5
 -5 <= x285 <= 5
 -5 <= x286 <= 5
 -5 <= x287 <= 5
 -5 <= x288 <= 5
 -5 <= x289 <= 5
 -5 <= x290 <= 5
 -5 <= x291 <= 5
 -5 <= x292 <= 5
 -5 <= x293 <= 5
 -5 <= x294 <= 5
 -5 <= x295 <= 5
 -5 <= x296 <= 5
 -5 <= x297 <= 5
 -5 <= x298 <= 5

End
