\ Equation counts
\     Total        E        G        L        N        X        C        B
\       270      180        0       90        0        0        0        0
\ 
\ Variable counts
\                  x        b        i      s1s      s2s       sc       si
\     Total     cont   binary  integer     sos1     sos2    scont     sint
\       295      205       90        0        0        0        0        0
\ 
\ Nonzero counts
\     Total    const       NL      DLL
\      2766     2586      180        0
\ 
Minimize
 obj: b2 + b3 + b4 + b5 + b6 + b7 + b8 + b9 + b10 + b11 + b12 + b13 + b14 + b15 + b16 + b17 + b18 + b19 
  + b20 + b21 + b22 + b23 + b24 + b25 + b26 + b27 + b28 + b29 + b30 + b31 + b32 + b33 + b34 + b35 + b36 
  + b37 + b38 + b39 + b40 + b41 + b42 + b43 + b44 + b45 + b46 + b47 + b48 + b49 + b50 + b51 + b52 + b53 
  + b54 + b55 + b56 + b57 + b58 + b59 + b60 + b61 + b62 + b63 + b64 + b65 + b66 + b67 + b68 + b69 + b70 
  + b71 + b72 + b73 + b74 + b75 + b76 + b77 + b78 + b79 + b80 + b81 + b82 + b83 + b84 + b85 + b86 + b87 
  + b88 + b89 + b90 + b91 + 0 x92 + 0 x93 + 0 x94 + 0 x95 + 0 x96 + 0 x97 + 0 x98 + 0 x99 + 0 x100 + 0 x101 
  + 0 x102 + 0 x103 + 0 x104 + 0 x105 + 0 x106 + 0 x107 + 0 x108 + 0 x109 + 0 x110 + 0 x111 + 0 x112 
  + 0 x113 + 0 x114 + 0 x115 + 0 x116 + 0 x117 + 0 x118 + 0 x119 + 0 x120 + 0 x121 + 0 x122 + 0 x123 
  + 0 x124 + 0 x125 + 0 x126 + 0 x127 + 0 x128 + 0 x129 + 0 x130 + 0 x131 + 0 x132 + 0 x133 + 0 x134 
  + 0 x135 + 0 x136 + 0 x137 + 0 x138 + 0 x139 + 0 x140 + 0 x141 + 0 x142 + 0 x143 + 0 x144 + 0 x145 
  + 0 x146 + 0 x147 + 0 x148 + 0 x149 + 0 x150 + 0 x151 + 0 x152 + 0 x153 + 0 x154 + 0 x155 + 0 x156 
  + 0 x157 + 0 x158 + 0 x159 + 0 x160 + 0 x161 + 0 x162 + 0 x163 + 0 x164 + 0 x165 + 0 x166 + 0 x167 
  + 0 x168 + 0 x169 + 0 x170 + 0 x171 + 0 x172 + 0 x173 + 0 x174 + 0 x175 + 0 x176 + 0 x177 + 0 x178 
  + 0 x179 + 0 x180 + 0 x181 + 0 x182 + 0 x183 + 0 x184 + 0 x185 + 0 x186 + 0 x187 + 0 x188 + 0 x189 
  + 0 x190 + 0 x191 + 0 x192 + 0 x193 + 0 x194 + 0 x195 + 0 x196 + 0 x197 + 0 x198 + 0 x199 + 0 x200 
  + 0 x201 + 0 x202 + 0 x203 + 0 x204 + 0 x205 + 0 x206 + 0 x207 + 0 x208 + 0 x209 + 0 x210 + 0 x211 
  + 0 x212 + 0 x213 + 0 x214 + 0 x215 + 0 x216 + 0 x217 + 0 x218 + 0 x219 + 0 x220 + 0 x221 + 0 x222 
  + 0 x223 + 0 x224 + 0 x225 + 0 x226 + 0 x227 + 0 x228 + 0 x229 + 0 x230 + 0 x231 + 0 x232 + 0 x233 
  + 0 x234 + 0 x235 + 0 x236 + 0 x237 + 0 x238 + 0 x239 + 0 x240 + 0 x241 + 0 x242 + 0 x243 + 0 x244 
  + 0 x245 + 0 x246 + 0 x247 + 0 x248 + 0 x249 + 0 x250 + 0 x251 + 0 x252 + 0 x253 + 0 x254 + 0 x255 
  + 0 x256 + 0 x257 + 0 x258 + 0 x259 + 0 x260 + 0 x261 + 0 x262 + 0 x263 + 0 x264 + 0 x265 + 0 x266 
  + 0 x267 + 0 x268 + 0 x269 + 0 x270 + 0 x271 + 0 x272 + 0 x273 + 0 x274 + 0 x275 + 0 x276 + 0 x277 
  + 0 x278 + 0 x279 + 0 x280 + 0 x281 + 0 x282 + 0 x283 + 0 x284 + 0 x285 + 0 x286 + 0 x287 + 0 x288 
  + 0 x289 + 0 x290 + 0 x291 + 0 x292 + 0 x293 + 0 x294 + 0 x295 + 0 x296

Subject To
 e2: - 66 x92 + 49 x93 - 81 x94 + 73 x95 + 15 x96 + 56 x97 + 38 x98 - 26 x99 + 74 x100 + 48 x101 - 11 x102 
  - 29 x103 + 46 x104 - 48 x105 - 21 x106 + 55 x107 + 68 x108 + 14 x109 + 42 x110 - 84 x111 - 9 x112 
  - 78 x113 + 8 x114 - 22 x115 + 13 x116 - x117 <= 91
 e3: 73 x92 - 68 x93 - 45 x94 - 48 x95 + 84 x96 - 13 x97 + 57 x98 - 75 x99 - 84 x100 + 88 x101 - 95 x102 
  - 70 x103 - 24 x104 - 69 x105 + 5 x106 + 75 x107 - 14 x108 - 47 x109 - 37 x110 + 53 x111 - 79 x112 
  + 53 x113 + 40 x114 - 57 x115 + 52 x116 - x118 <= -18
 e4: 29 x92 + 85 x93 + 37 x95 - 13 x96 + 21 x97 + 14 x98 + 26 x99 - 7 x100 + 26 x101 - 73 x102 + 92 x103 
  - 71 x104 - 11 x105 - 35 x106 + 90 x107 - 29 x108 - 20 x109 - 80 x110 + 90 x111 + 96 x112 + 14 x113 
  + 73 x114 - 70 x115 + 81 x116 - x119 <= 29
 e5: - 88 x92 + 90 x93 + 93 x94 + 56 x95 + 60 x96 + 13 x97 - 44 x98 + 92 x99 + 15 x100 - 13 x101 - 25 x102 
  + 84 x103 - 95 x104 + 53 x105 + 44 x106 + 17 x107 - 15 x108 + 28 x109 + 49 x110 - 87 x111 - 90 x112 
  + 54 x113 + 40 x114 - 76 x115 - 40 x116 - x120 <= -86
 e6: 37 x92 - 27 x93 + 45 x94 - 61 x95 - 69 x96 - 68 x97 + 66 x98 + 9 x99 - 37 x100 + 5 x101 - 13 x102 
  - 58 x103 + 45 x104 - 100 x105 + 16 x106 - 5 x107 + 87 x108 + 52 x109 - 75 x110 - 98 x111 + 68 x113 
  + 70 x114 - 82 x115 + 71 x116 - x121 <= 57
 e7: 15 x92 - 81 x93 + 65 x94 + 49 x95 + 81 x96 + x97 + 76 x98 + 92 x99 + 12 x100 - 5 x101 - 17 x102 
  + 29 x103 + 75 x104 + 16 x105 - 56 x106 + 99 x107 - 69 x108 + 38 x109 + 40 x110 + 97 x111 + 29 x112 
  + 30 x113 + 68 x114 + 36 x115 + 93 x116 - x122 <= -34
 e8: 59 x92 - 68 x93 + 72 x94 + 20 x95 - 16 x96 + 96 x97 + 73 x98 - 7 x99 - 51 x100 + 68 x101 + 68 x102 
  + 47 x103 - 74 x104 - 5 x105 + 56 x106 + 13 x108 - 11 x109 - 93 x110 - 34 x111 - 15 x112 + 16 x113 
  - 83 x114 + 34 x115 + 17 x116 - x123 <= -53
 e9: 48 x92 + 91 x93 + 72 x94 - 86 x95 + 7 x96 - 24 x97 - 100 x98 + 43 x99 - 90 x100 - 96 x101 + 51 x102 
  + 25 x103 + 86 x104 + 9 x105 - 17 x106 - 22 x107 - 61 x108 - 39 x109 - 58 x110 + 21 x111 - 26 x112 
  - 68 x113 - 8 x114 + 60 x115 - 64 x116 - x124 <= 43
 e10: - 5 x92 - 72 x93 + 26 x94 - 52 x95 - 76 x96 + 74 x97 - 80 x98 + 50 x99 - 24 x100 + 10 x101 - 85 x102 
  - 25 x103 + 24 x104 + 57 x105 - 16 x106 + 64 x107 + 9 x108 + 45 x109 - 2 x110 - 48 x111 - 2 x113 - 2 x114 
  + 69 x115 + 83 x116 - x125 <= -28
 e11: 8 x92 + 20 x93 + 21 x94 - 12 x95 + 41 x96 - 57 x97 + 52 x98 - 39 x99 + 57 x100 - 82 x101 + 79 x102 
  + 86 x103 + 93 x104 + 23 x105 - 87 x106 - 78 x107 + 25 x108 - 86 x109 + 11 x110 - 53 x111 + 22 x112 
  + 86 x113 + 13 x114 + 14 x115 - 7 x116 - x126 <= -76
 e12: - 53 x92 + 99 x93 + 11 x94 + 72 x95 - 43 x96 + 45 x97 + 64 x98 - 2 x99 + 18 x100 - 78 x101 - 69 x102 
  + 39 x103 + 18 x104 + 76 x105 - 14 x106 - 58 x107 - 64 x108 + 37 x109 - 57 x110 - 47 x111 - 56 x112 
  - x113 - 47 x114 - 11 x115 - 53 x116 - x127 <= -41
 e13: 29 x92 + 49 x93 + 38 x94 - 15 x95 + 51 x96 - 20 x97 - 25 x98 + 27 x99 + 6 x100 + 79 x101 + 30 x102 
  + 86 x103 - 99 x104 - 66 x105 + 28 x106 + 52 x107 + 34 x108 + 53 x109 + 50 x110 + 79 x111 - 57 x112 
  + 26 x113 + 19 x114 + 24 x115 - 27 x116 - x128 <= -86
 e14: - 50 x92 - 28 x93 - 3 x94 - 42 x96 - 53 x97 + 32 x98 + 79 x99 + 33 x100 - 92 x101 + 67 x102 + 13 x103 
  - 64 x104 - 95 x105 - 5 x106 + 12 x107 - 67 x108 + 21 x109 + 28 x110 - 39 x111 + 91 x112 + 52 x113 
  + 26 x114 - 87 x115 - 74 x116 - x129 <= 51
 e15: - 4 x92 + 42 x93 - 77 x94 + 27 x95 - 20 x96 + 40 x97 + 56 x98 + 40 x99 - 47 x100 + 55 x101 - 74 x102 
  - 45 x103 - 84 x104 - 58 x105 - 61 x106 + 23 x107 + 20 x108 + 9 x109 + 13 x110 - 75 x111 - 86 x112 
  + 76 x113 - 70 x114 + 12 x115 - 37 x116 - x130 <= -33
 e16: - 59 x92 + 34 x93 - 93 x94 - 92 x95 + 63 x96 - 88 x97 + 41 x98 - 18 x99 + 77 x100 + 87 x101 - 100 x102 
  - 30 x103 + 87 x104 + 98 x105 - 28 x106 + 95 x107 - 95 x108 - 32 x109 + 69 x110 - 12 x111 + 40 x112 
  + 13 x113 - 80 x114 - 64 x115 - 52 x116 - x131 <= 36
 e17: 97 x92 + 2 x93 + 80 x94 - 7 x95 - 5 x96 - 19 x97 + 51 x98 - 77 x99 - 71 x100 + 39 x101 - 48 x102 
  + 5 x103 - 87 x104 - 71 x105 - 18 x106 - 84 x107 + 27 x108 - 97 x109 - 52 x110 + 15 x111 - 68 x112 
  - 47 x113 - 85 x114 - 71 x115 - 83 x116 - x132 <= -72
 e18: - 6 x92 + 44 x93 - 5 x94 + 11 x95 - x96 - 84 x97 - 41 x98 - 41 x99 - 34 x100 - 83 x101 - 81 x102 
  - 60 x103 - 79 x104 - 66 x105 + 66 x106 + 65 x107 + 84 x108 + 6 x109 - 6 x110 + 39 x111 + x112 + 53 x113 
  + 96 x114 - 7 x115 + 33 x116 - x133 <= 78
 e19: 70 x92 + 50 x93 + 42 x94 - 83 x95 + 59 x96 - 25 x97 - 9 x98 - 27 x99 + 55 x100 + 19 x101 - 89 x102 
  - 76 x103 + 11 x104 + 30 x105 - 88 x106 + 4 x107 + 68 x108 - 69 x109 - 100 x110 + 79 x111 - 57 x112 
  - 63 x113 + 93 x114 + 63 x115 + 41 x116 - x134 <= 17
 e20: 35 x92 + 54 x93 - 54 x94 - 57 x95 - 26 x96 + 64 x97 - 68 x98 + 22 x99 - 76 x100 - 13 x101 - 100 x102 
  + 3 x103 - 8 x104 + 37 x105 - 94 x106 - 19 x107 - 44 x109 + 99 x110 - 27 x111 - 26 x112 + 90 x113 - 84 x114 
  + 22 x115 + 58 x116 - x135 <= -29
 e21: 94 x92 - 64 x93 - 14 x94 + 56 x95 - 77 x96 + 6 x97 - 52 x98 + 22 x99 + 55 x100 - 64 x101 - 2 x102 
  + 86 x103 - 37 x104 - 28 x105 - 80 x106 - 26 x107 + 77 x108 + 78 x109 + 97 x110 - 79 x111 - 70 x112 
  + 87 x113 + 56 x114 + 75 x115 - 48 x116 - x136 <= -75
 e22: 7 x92 - 31 x93 - 23 x94 - 26 x95 - 5 x96 + 45 x97 + 86 x98 - x99 - 5 x100 + 91 x101 - 40 x102 - 10 x103 
  + 64 x104 - 24 x105 + 45 x106 - 31 x107 + 31 x108 + 72 x109 + 32 x110 + 60 x111 + 85 x112 - 36 x113 
  - 5 x114 + 13 x115 - 15 x116 - x137 <= 89
 e23: - 83 x92 - 15 x93 - 38 x94 + 39 x95 - 29 x96 + 6 x97 - 78 x98 + 47 x99 + 85 x100 - 72 x101 + 88 x102 
  - 96 x103 - 20 x104 - 60 x105 - 80 x106 - 93 x107 - 19 x108 - 11 x109 + 36 x110 - 49 x111 + 62 x112 
  - 81 x113 + 29 x114 + x115 - x138 <= -69
 e24: 26 x92 - 79 x93 - 58 x94 + 77 x95 + 97 x96 - 97 x97 + 72 x98 - 76 x99 - 74 x100 + 13 x101 - 74 x102 
  + 72 x103 + 8 x104 - 11 x105 - 37 x106 - 14 x107 + 93 x108 + 61 x109 + 44 x110 + 68 x111 + 86 x112 
  - 77 x113 - 7 x114 - 22 x115 - 24 x116 - x139 <= -50
 e25: - 74 x92 + 24 x93 + 23 x94 - 2 x95 + 3 x96 + 56 x97 - 45 x98 - 15 x99 - 79 x100 - 54 x101 + 80 x102 
  + 15 x103 + 62 x104 + 56 x105 + 41 x106 - 32 x107 + 87 x108 - 59 x109 + 44 x110 + 66 x111 - 31 x112 
  - 35 x113 - 32 x114 + 5 x115 + 10 x116 - x140 <= -97
 e26: - 9 x92 - 50 x94 + x95 - 52 x96 + 21 x97 - 41 x98 + 82 x99 + 13 x100 - 41 x101 - 3 x102 - 72 x103 
  + 28 x104 - 74 x105 + 64 x106 + 2 x107 - 19 x108 - 69 x109 + 43 x110 - 4 x111 + 43 x112 + 70 x113 + 67 x114 
  - 5 x115 + 82 x116 - x141 <= -84
 e27: - 67 x92 + 35 x93 + 53 x94 + 82 x95 - 14 x96 + 71 x97 - 30 x98 + 33 x99 - 57 x100 - 2 x101 - 60 x102 
  - 18 x103 - 23 x104 + 73 x105 - 22 x106 + 53 x107 + 12 x108 - 25 x109 + 81 x110 + 69 x111 - 44 x112 
  + 71 x113 + 94 x114 + 52 x115 - 68 x116 - x142 <= -64
 e28: 3 x92 - 38 x93 + 96 x94 + 43 x95 + 15 x96 - 16 x97 - 17 x98 - 59 x99 + 90 x100 + 76 x101 - 99 x102 
  - 84 x103 - 42 x104 + 73 x105 + 95 x106 + 28 x107 - 16 x108 + 73 x109 - 37 x110 + 98 x111 - 85 x112 
  - 45 x113 + 66 x114 - 94 x115 + 52 x116 - x143 <= -23
 e29: - 54 x92 - 90 x93 - 34 x94 + 95 x95 + 49 x96 + 19 x97 + 23 x98 + 22 x99 + 13 x100 - 34 x101 + 22 x102 
  - 21 x103 + 46 x104 - 96 x105 - 23 x106 + 22 x107 + 19 x108 + 87 x109 + 57 x110 + 63 x111 + 64 x112 
  + 22 x113 - 38 x114 + 63 x115 - 92 x116 - x144 <= -62
 e30: 16 x92 - 65 x93 - 12 x94 + x96 - 7 x97 - 38 x98 - 67 x99 + 50 x100 - 15 x101 + 14 x102 + 69 x103 
  + 58 x104 - 75 x105 + 85 x106 + 15 x107 - 11 x108 + 31 x109 - 55 x110 - 93 x111 - 34 x112 - 81 x113 
  - 18 x114 + 34 x115 + 5 x116 - x145 <= -87
 e31: 63 x92 - 79 x93 - 38 x94 + 79 x95 - 71 x96 - 67 x97 + 68 x98 - 96 x99 + 98 x100 + 11 x101 + 16 x102 
  - 39 x103 - 74 x104 + 90 x105 - 81 x106 - 75 x107 + 6 x108 - 22 x109 - 57 x110 - 21 x111 - 61 x112 
  + 92 x113 + 8 x114 + 41 x115 - 33 x116 - x146 <= 64
 e32: 7 x92 + 54 x93 - 93 x94 + 87 x95 + 55 x96 - 9 x97 + 84 x98 - 75 x99 - 88 x100 + 79 x101 - 49 x102 
  + 79 x103 - 25 x104 - 97 x105 + 15 x106 + 20 x107 - 88 x108 - 8 x109 + 56 x110 - 14 x111 - 71 x112 
  - 59 x113 + 83 x114 + 47 x115 - 50 x116 - x147 <= -42
 e33: - 69 x92 + 92 x93 + 68 x94 - 64 x95 + 35 x96 - 35 x97 - 67 x98 + 58 x99 + 34 x100 + 35 x101 - 51 x102 
  - 54 x103 + 36 x104 - 38 x105 - 27 x106 + 69 x107 + 72 x108 + 50 x109 - 77 x110 - 55 x111 + 95 x112 
  - 92 x113 + 19 x114 + 3 x115 - 19 x116 - x148 <= -61
 e34: 34 x92 + 2 x93 + 56 x94 - 6 x95 - 49 x96 - 76 x97 + 26 x98 + 22 x99 + 6 x100 - 76 x101 - 50 x102 
  - 95 x103 - 25 x104 - 50 x105 + 21 x106 - 96 x107 - 96 x108 - 46 x109 + 88 x110 + 48 x111 + 2 x112 
  - 48 x113 + 94 x114 + 32 x115 + 66 x116 - x149 <= -91
 e35: 7 x92 - 34 x93 - 30 x94 - 77 x95 - 65 x96 + 93 x97 + 65 x98 + 22 x99 + 34 x100 - 98 x101 + 99 x102 
  - 73 x103 - 93 x104 - 14 x105 + 49 x106 + 54 x107 + 23 x108 - 93 x109 - 63 x110 - 87 x111 - 22 x112 
  + 16 x113 + 99 x114 + 91 x115 - 70 x116 - x150 <= 67
 e36: - 18 x92 - 88 x93 - 70 x94 + 80 x95 + 39 x96 - 11 x97 - 49 x98 - 62 x99 - 32 x100 + 46 x101 - 31 x102 
  + 69 x103 - 47 x104 + 23 x105 - 78 x106 + 45 x107 - 66 x108 - 94 x109 + 2 x110 - 67 x111 + 31 x112 
  - 29 x113 - 5 x114 + 5 x115 + 94 x116 - x151 <= 77
 e37: - 42 x92 + 63 x93 - 36 x94 - 70 x95 + 37 x96 + 45 x97 - 86 x98 + 49 x99 - 22 x100 + 95 x101 + 3 x102 
  - 19 x103 - 4 x105 + 54 x106 + 72 x107 + 45 x108 + 61 x109 + 3 x110 - 7 x111 - 22 x112 + 52 x113 - 8 x114 
  + 71 x115 - 61 x116 - x152 <= 87
 e38: - 9 x92 - 28 x93 - 65 x94 - 71 x95 - 53 x96 + 13 x97 - x98 + 52 x99 - 26 x100 + 61 x101 + 47 x102 
  + 44 x103 + 82 x104 - 62 x105 - 21 x106 - 80 x107 - 77 x108 - 67 x109 + 86 x110 - 62 x111 + 64 x112 
  + 83 x113 - 66 x114 + 79 x115 - 59 x116 - x153 <= -96
 e39: - 67 x92 - 61 x93 + 37 x94 + 75 x95 - 84 x96 - 61 x97 + 45 x98 + 67 x99 + 33 x100 + 59 x101 - 93 x102 
  + 46 x103 - 4 x104 + 64 x105 + 50 x106 + 51 x107 - 52 x108 - 45 x109 - 23 x110 + 34 x111 + 33 x112 
  + 56 x113 - 35 x114 + 45 x115 - 83 x116 - x154 <= -63
 e40: - 25 x92 + 10 x93 + 9 x94 + 34 x95 - 10 x96 + 14 x97 - 27 x98 + 94 x99 + 17 x100 + 73 x101 - 95 x102 
  - 93 x103 + 49 x104 - 59 x105 - 29 x106 - 29 x107 + 29 x108 + 74 x109 - 57 x110 + 97 x111 + 59 x112 
  - 93 x113 - 24 x114 + 99 x115 - 6 x116 - x155 <= 17
 e41: - 97 x92 + 98 x93 - 70 x94 - 90 x95 - 71 x96 + 99 x97 - 59 x98 + 41 x99 + 45 x100 - 31 x101 - 85 x102 
  - 53 x103 + 76 x104 - 78 x105 + 20 x106 - 26 x107 - 35 x108 - 27 x109 - 79 x110 - 93 x111 - 21 x112 
  + 52 x113 + 85 x114 + 6 x115 + 5 x116 - x156 <= -95
 e42: - 77 x92 - 14 x93 - 81 x94 - 62 x95 - 8 x96 - 33 x97 + 76 x98 - 15 x99 + 14 x100 + 15 x101 - 26 x102 
  - 28 x103 - 70 x104 - 96 x105 + 98 x106 - 67 x107 - 76 x108 + 33 x109 + 16 x110 + 45 x111 - 37 x112 
  - 30 x113 - 10 x114 - 20 x115 - 39 x116 - x157 <= -24
 e43: 79 x92 - 81 x93 + 71 x94 - 86 x95 - 51 x96 - 63 x97 + 23 x98 + 16 x99 - 58 x100 - 9 x101 + 21 x102 
  + 86 x103 - 89 x104 - 19 x105 - 7 x107 + 46 x108 + 78 x109 + 40 x110 - 86 x111 + 2 x112 + x113 - 89 x114 
  + 50 x115 - 80 x116 - x158 <= -42
 e44: 81 x92 + 73 x93 - 26 x94 - 95 x95 + 40 x96 - 91 x97 + 16 x98 + 88 x99 + 70 x100 - 10 x101 + 13 x102 
  + 61 x103 + 23 x104 - 43 x105 + 5 x106 + 55 x107 - 85 x108 + 54 x109 - 51 x110 + 63 x111 - 32 x112 
  - 84 x113 - 64 x114 - 23 x115 + 17 x116 - x159 <= 72
 e45: - 50 x92 - 55 x93 - 38 x94 + 14 x95 + 87 x96 + 42 x97 - 48 x98 - 83 x99 + 95 x100 + 2 x101 - 30 x102 
  - 8 x103 - 29 x104 + 59 x105 - 56 x106 + 25 x107 - 68 x108 - 6 x109 - 23 x110 - 33 x111 + 11 x112 + 39 x113 
  + 52 x114 - 75 x115 - 99 x116 - x160 <= 37
 e46: 52 x92 - 48 x93 - 73 x94 - 34 x95 + 54 x96 - 55 x97 + 78 x98 + 26 x99 + 14 x100 - 31 x101 - 27 x102 
  + 41 x103 - 85 x104 - 34 x105 - 70 x106 - 87 x107 - 47 x108 - 13 x109 - 46 x110 + 58 x111 - 27 x112 
  - 96 x113 + 6 x114 - 86 x115 + 59 x116 - x161 <= 17
 e47: - 54 x92 + 99 x93 - 18 x94 + 55 x95 + 9 x96 + 71 x97 - 88 x98 + 64 x99 + 24 x100 - 93 x101 - 9 x102 
  - 7 x103 - 52 x104 + 67 x105 - 37 x106 + 30 x107 + 25 x108 + 83 x109 + 29 x110 + 2 x111 + 85 x112 + 42 x113 
  + 9 x114 + 2 x115 - 5 x116 - x162 <= -25
 e48: - 66 x92 - 3 x93 - 81 x94 - 19 x95 - 15 x96 + 18 x97 - 60 x98 - 18 x99 + 13 x100 - 17 x101 + 77 x102 
  - 56 x103 + 33 x104 + 60 x105 + 16 x106 + 94 x107 + 63 x109 + 21 x110 + 37 x111 - 69 x112 + 26 x113 
  + 94 x114 - 31 x115 + 29 x116 - x163 <= 5
 e49: - 45 x92 - 90 x93 + 84 x94 - 39 x95 + 9 x96 - 25 x97 - 80 x98 - 15 x99 + 33 x101 + 42 x102 - 24 x103 
  - 64 x104 + 78 x105 + 82 x106 - 69 x107 + 75 x108 - 79 x109 - 28 x110 - 100 x111 + 76 x112 + 37 x113 
  + 69 x114 - 38 x115 + 40 x116 - x164 <= 99
 e50: - 13 x92 - 4 x93 + 79 x94 + 16 x95 + 9 x96 - 84 x97 + 97 x98 - 28 x99 - 67 x100 - 42 x101 + 53 x102 
  + 98 x103 + 6 x104 - 18 x105 + 36 x106 + x107 + 26 x108 + 68 x109 + 71 x110 + 78 x111 - 31 x112 + 57 x113 
  + 17 x114 - 56 x115 + 5 x116 - x165 <= -54
 e51: - 5 x92 - 100 x93 - 36 x94 - 38 x95 - x96 - 5 x97 + 15 x98 + 74 x99 - 36 x100 - 42 x101 - 84 x102 
  - 6 x103 - 63 x104 + 8 x105 + 87 x106 + 32 x107 + 63 x108 - 61 x109 + 49 x110 + 85 x111 - 60 x112 + 97 x113 
  - 23 x114 - 36 x115 + 59 x116 - x166 <= -57
 e52: - 6 x92 - 56 x93 + 12 x94 + 41 x95 - 67 x96 + 67 x97 - 51 x98 + 47 x99 - 3 x100 + 2 x101 + 14 x102 
  + 77 x103 + 47 x104 + 51 x105 + 87 x106 - 5 x107 - 38 x108 + 56 x109 + 91 x110 - 22 x111 - 3 x112 + 37 x113 
  - 24 x114 - 94 x115 - 68 x116 - x167 <= 21
 e53: - 56 x92 - 93 x93 + 14 x94 + 44 x95 + 93 x96 + 69 x97 + 75 x98 + 17 x99 - 11 x100 + 61 x101 + 89 x102 
  + 98 x103 - 90 x104 + 41 x105 + 76 x106 + 32 x107 - 2 x108 + 86 x109 - 61 x110 - 95 x111 - 9 x112 - 87 x113 
  + 56 x114 - 83 x115 + 11 x116 - x168 <= 48
 e54: 50 x92 + 99 x93 - 54 x94 - 30 x95 - 45 x96 + 24 x97 + 69 x98 + 78 x99 - 6 x100 + 69 x101 - 43 x102 
  - 25 x103 + 54 x104 + 14 x105 - 17 x106 + 14 x107 - 99 x108 - 60 x109 - 21 x110 - 38 x111 - 49 x112 
  + 24 x113 + 19 x114 - 30 x115 - 92 x116 - x169 <= 7
 e55: - 80 x92 - 42 x93 - 50 x94 + 98 x95 + 58 x96 + 97 x97 - 15 x98 - 6 x99 - 67 x100 - 21 x101 + 55 x102 
  + 11 x103 - 80 x104 + 97 x105 + 47 x106 - 42 x107 + 36 x108 - 19 x109 - 14 x110 - 16 x111 - 85 x112 
  - 45 x113 + 59 x114 + 22 x115 - 37 x116 - x170 <= -43
 e56: - 51 x92 - 49 x93 + 72 x94 + 46 x95 + 20 x96 - 87 x97 + 81 x98 - 49 x99 - 6 x100 - 57 x101 + 88 x102 
  - 30 x103 - 47 x104 - 84 x105 - 13 x106 + 78 x107 - 14 x108 - 18 x109 - 63 x110 + 67 x111 - 59 x112 
  - 41 x114 + 10 x115 + 93 x116 - x171 <= -79
 e57: - 73 x92 + 57 x93 + 29 x94 + 5 x95 + 86 x96 - 66 x97 - 99 x98 + 25 x99 - 62 x100 + 17 x101 - 65 x102 
  + 20 x103 - 31 x104 - 14 x105 + 22 x106 + 9 x107 + 71 x108 + 23 x109 - 4 x110 - 54 x111 - 89 x112 + 91 x113 
  - 84 x114 - 74 x115 - 4 x116 - x172 <= -25
 e58: - 71 x92 - 3 x93 - 77 x94 - 16 x95 + 98 x96 - 47 x97 - 5 x98 + 33 x99 - 12 x100 + 44 x101 - 64 x102 
  + 76 x103 - 39 x104 - 95 x105 + 40 x106 - 79 x107 - 2 x108 + 4 x109 + 45 x110 - 38 x111 + 45 x112 + 54 x113 
  + 29 x114 + 28 x115 - 30 x116 - x173 <= -76
 e59: 10 x92 - 5 x93 - 9 x94 - 56 x95 + 54 x96 - 46 x97 + 16 x98 + 14 x99 + 57 x100 - 72 x101 + 5 x102 
  - 52 x103 - 85 x104 - 43 x105 + 82 x106 + 93 x107 - 62 x108 + 90 x109 + 16 x110 - 44 x111 + 10 x112 
  - 74 x113 - 6 x114 - 65 x115 + 84 x116 - x174 <= 87
 e60: 58 x92 - 90 x93 - 9 x94 - 52 x95 + 70 x96 + 19 x97 + 30 x98 - 30 x99 - 79 x100 + 85 x101 - 56 x102 
  + 47 x103 - 75 x104 + 81 x105 + 72 x106 + 94 x107 + 63 x108 + 75 x109 - 36 x110 + 10 x111 - 66 x112 
  - 33 x113 + 78 x114 + 89 x115 - 11 x116 - x175 <= 84
 e61: 33 x92 + 81 x93 + 51 x94 - 40 x95 + 68 x96 + 32 x97 + 69 x98 - 60 x99 + 80 x100 + 75 x101 + 26 x102 
  - 93 x103 - 24 x104 - 60 x105 - 83 x106 - 3 x107 + 12 x108 - 45 x109 + 58 x110 + 93 x111 - 65 x112 
  - 24 x113 - 18 x114 - 6 x115 - 70 x116 - x176 <= 56
 e62: 52 x92 + 54 x93 - 51 x94 + 10 x95 - 73 x96 + 25 x97 - 93 x98 - 99 x99 - x100 + 70 x101 - 39 x102 
  + 45 x103 + 46 x104 - 9 x105 + 16 x106 + 58 x107 + 74 x108 + 38 x109 - 84 x110 + 87 x111 + 66 x112 
  + 81 x113 - 88 x114 + 83 x115 - 22 x116 - x177 <= 58
 e63: 47 x92 - 62 x93 - 70 x94 - 16 x95 + 15 x96 - 83 x97 + 93 x98 - 26 x99 + 35 x100 + 54 x101 - 7 x102 
  + 5 x103 + 91 x104 + 94 x105 + 80 x106 + 43 x107 + 18 x108 - 82 x109 + 74 x110 - 68 x111 - 51 x112 
  + 74 x113 + 9 x114 - 83 x115 + 76 x116 - x178 <= 52
 e64: 50 x92 + 75 x93 + 36 x94 - 11 x95 + 79 x96 - 40 x97 + 36 x98 - 45 x99 - 15 x100 - 82 x101 - 84 x102 
  + 88 x103 + 32 x104 + 91 x105 - 59 x106 + 70 x107 + 31 x108 + 57 x109 + 53 x110 - 54 x111 - 84 x112 
  + 53 x113 - 19 x114 - 87 x115 + 34 x116 - x179 <= 76
 e65: 97 x92 + 88 x93 + 25 x94 + 71 x95 - 86 x96 - 83 x97 - 94 x98 - 60 x99 - 93 x100 - 88 x101 - 30 x102 
  - 51 x103 + 57 x104 - 49 x105 - 43 x106 - 34 x107 - 34 x108 - 41 x109 - 17 x110 - 18 x111 + 35 x112 
  - 39 x113 + 47 x114 - 96 x115 + 14 x116 - x180 <= 33
 e66: 26 x92 + 67 x93 + 11 x94 - 47 x95 + 93 x96 - x97 - 66 x98 + 74 x99 + 16 x100 + 34 x101 + 80 x102 
  + 66 x103 - 80 x104 - 42 x105 - 90 x107 + 56 x108 - 41 x109 - 100 x110 + 51 x111 + 78 x112 - 56 x113 
  + 65 x114 + 60 x115 - 72 x116 - x181 <= -59
 e67: 52 x92 + 27 x93 + 54 x94 - 98 x95 - 4 x96 - 2 x97 + 6 x98 - 93 x99 + 99 x100 - 46 x101 - 84 x102 
  + 36 x103 - 23 x104 - 90 x105 + 76 x106 + 19 x107 - 35 x108 + 33 x109 - 23 x110 - 50 x111 - 70 x112 
  + 81 x113 + 31 x114 + 50 x115 + 11 x116 - x182 <= 38
 e68: 56 x92 - 4 x93 + 70 x94 + 28 x95 + 92 x96 + 51 x97 - 86 x98 - 56 x99 + 30 x100 - 42 x101 + 57 x102 
  + 47 x103 + 49 x104 + 98 x105 + 26 x106 + 28 x107 + 91 x108 - 19 x109 - 95 x110 + 34 x111 + 62 x112 
  - 7 x113 - 71 x114 + 30 x115 + 38 x116 - x183 <= -92
 e69: 79 x92 - 16 x93 - 34 x94 - 23 x95 - 72 x96 - 84 x97 - 87 x99 - 37 x100 - 10 x101 + 32 x102 + 98 x103 
  + 92 x104 + 60 x105 + 56 x106 + 91 x107 + 34 x108 - 80 x109 - 67 x110 - 16 x111 - 15 x112 + 38 x113 
  + 71 x114 + 55 x115 - 95 x116 - x184 <= -15
 e70: - 54 x92 + 61 x93 - 79 x94 + 57 x95 + 68 x96 - 71 x97 - 33 x98 - 45 x99 - 96 x100 + 82 x101 + 14 x102 
  + 80 x103 - 98 x104 + 3 x105 + 89 x106 + 63 x107 - 29 x108 + 35 x109 + 5 x110 - 55 x111 - 48 x112 - 21 x113 
  + 79 x114 - 24 x115 - 51 x116 - x185 <= 22
 e71: - 33 x92 + 6 x93 - 67 x94 + 83 x95 - 69 x96 + 93 x97 + 39 x98 + 40 x99 - 20 x100 + 90 x101 + 99 x102 
  - 24 x103 + 74 x104 + 13 x105 + 68 x106 + 17 x107 + 16 x108 - 3 x109 - 2 x110 - 17 x111 - 24 x112 + 85 x113 
  + 41 x114 - 98 x115 - 50 x116 - x186 <= 52
 e72: 95 x92 - 53 x93 + 88 x94 - 56 x95 - 98 x96 - 44 x97 + 4 x98 + 86 x99 + 53 x100 - 57 x101 - 10 x102 
  + 59 x103 - 55 x105 - 80 x106 + 61 x107 - 60 x108 - 57 x109 + 16 x110 + 71 x111 - 44 x112 - 12 x113 
  - 78 x114 + 87 x115 + 81 x116 - x187 <= 13
 e73: 8 x92 + 53 x93 - 24 x94 + 90 x95 + 67 x96 + 26 x97 - 59 x98 - 61 x99 - 60 x100 + 12 x101 + 41 x102 
  - 43 x103 - 23 x104 - 11 x105 + 11 x107 - 43 x108 + 90 x109 - 82 x110 + 61 x111 - 97 x112 - 92 x113 
  + 24 x114 - 61 x115 - 42 x116 - x188 <= -78
 e74: 51 x92 + 23 x93 + 31 x94 - 81 x95 + 98 x96 - 18 x97 + 96 x98 - 14 x99 - 82 x100 + 62 x101 + 48 x102 
  - 65 x103 - 72 x104 - 61 x105 + 20 x106 - 42 x107 + 69 x108 + 49 x109 + 67 x110 - 37 x111 - 65 x112 
  + 97 x113 - 89 x115 - 21 x116 - x189 <= -68
 e75: - 2 x92 + 16 x93 - 100 x94 + 80 x95 - 19 x96 - 56 x97 + 38 x98 - 21 x99 - 59 x100 + 8 x101 + 94 x102 
  - 91 x103 - 95 x105 + 60 x106 + 24 x107 + 68 x108 - 66 x109 + 76 x110 - 41 x111 - 49 x112 + 25 x113 
  + 83 x114 - 93 x115 - x190 <= 38
 e76: 48 x92 - 38 x93 - 62 x94 - 59 x95 + 5 x96 - 61 x97 + 21 x98 - 60 x99 + 61 x100 - 99 x101 + 93 x102 
  - 22 x103 + 11 x104 - 48 x105 - 67 x106 - 79 x107 + 38 x108 + 8 x109 + 34 x110 + 40 x111 + 17 x112 
  + 39 x113 + 58 x114 + 70 x115 - 22 x116 - x191 <= 94
 e77: 13 x92 + 50 x93 - 13 x94 - 73 x95 - 92 x96 + 20 x97 + 92 x98 - 75 x99 + 17 x100 - 53 x101 - 17 x102 
  - 15 x103 - 34 x104 + 97 x105 + 21 x106 + 71 x107 - 2 x108 - 84 x109 + 36 x111 + 78 x112 - 12 x113 
  + 8 x114 + 67 x115 + 44 x116 - x192 <= -52
 e78: 20 x92 - 93 x93 + 16 x94 - 92 x95 + 75 x96 - 64 x97 - 30 x98 - 79 x99 + 44 x100 + 80 x101 - 4 x102 
  - 54 x103 - 64 x104 + 63 x105 + 14 x106 + 57 x107 + 52 x108 - 23 x109 - 89 x110 - 38 x111 - 73 x112 
  - 65 x113 + 91 x114 + 74 x115 + 91 x116 - x193 <= 96
 e79: - 50 x92 - 72 x93 + 44 x94 + 85 x95 - 45 x96 + 48 x97 + 50 x98 + 76 x99 + 48 x100 + 94 x101 - 63 x102 
  + 53 x103 - 13 x104 + 96 x105 + 99 x106 + 31 x107 + 29 x108 + 93 x109 + 47 x110 + 98 x111 - 50 x112 
  + 51 x113 + 98 x114 + 13 x115 - 75 x116 - x194 <= 24
 e80: 13 x92 - 44 x93 + 28 x94 + 63 x95 + 53 x96 + 61 x97 + 43 x98 + 69 x99 - 34 x100 + 31 x101 - 8 x102 
  + 94 x103 - 12 x104 - 76 x105 + 45 x106 - 52 x107 + 20 x108 + 32 x109 - 51 x110 + 56 x111 - 64 x112 
  + 47 x113 + 6 x114 + 50 x115 - 24 x116 - x195 <= 63
 e81: - 57 x92 + 18 x93 + x94 - 33 x95 + 42 x96 + 43 x97 + 3 x98 - 20 x99 - 78 x100 + 56 x101 - 30 x102 
  + 61 x103 + 9 x104 + 90 x105 + 57 x106 + 59 x107 + 74 x108 + 40 x109 - 96 x110 + 75 x111 + 96 x112 
  - 3 x113 + 28 x114 - 18 x115 + 76 x116 - x196 <= 3
 e82: - 99 x92 - 35 x93 + 86 x94 - 59 x95 - 38 x96 + 73 x97 + 73 x98 + 81 x99 + 80 x100 - 31 x101 + 38 x102 
  + 72 x103 - 56 x104 + 7 x105 + 92 x106 - 53 x107 - 24 x108 + 69 x109 - x110 - 45 x111 - 75 x112 + 41 x113 
  + 83 x114 + 49 x115 - 29 x116 - x197 <= 79
 e83: - 60 x92 - 77 x93 - 47 x94 + 2 x95 - 65 x96 - 91 x97 + 80 x98 - 48 x99 + 64 x100 - 93 x101 - 42 x102 
  + 68 x103 - 25 x104 + 95 x105 + 3 x106 - 99 x107 + 76 x108 - 26 x109 - 11 x110 - 15 x111 + 73 x112 
  - 97 x113 - 5 x114 - 14 x115 + 12 x116 - x198 <= -36
 e84: 9 x92 - 44 x93 - 100 x94 - 89 x95 - 93 x96 - 69 x97 - 55 x98 + 66 x99 - 85 x100 - 79 x101 - 49 x102 
  - 74 x104 - 71 x105 - 72 x106 - 55 x107 - 31 x108 + 55 x109 + 45 x110 + 13 x111 + 86 x112 - 19 x113 
  - 50 x114 - 86 x115 + 13 x116 - x199 <= -98
 e85: - 49 x92 + 16 x93 - 18 x94 + 39 x95 - 36 x96 + 9 x97 + 74 x98 + 5 x99 - 83 x100 - 27 x101 + 48 x102 
  - 49 x103 - 72 x104 - 63 x105 + 95 x106 - 18 x107 - 86 x108 - 5 x109 + 39 x110 - 25 x111 - 43 x112 
  + 7 x113 + 8 x114 - 67 x115 - 15 x116 - x200 <= 20
 e86: 65 x92 - 53 x93 + 7 x94 - 64 x95 - 12 x96 - 92 x97 - 36 x98 - 50 x99 - 27 x100 + 17 x101 - 44 x102 
  - 62 x103 - 45 x104 - 24 x105 - 78 x106 - 92 x107 - 49 x108 - 92 x109 - 91 x110 + 76 x111 + 53 x112 
  + 6 x113 - 11 x114 - 22 x115 + 6 x116 - x201 <= 8
 e87: 87 x92 + 49 x93 - 29 x94 + 8 x95 - 46 x96 - 58 x97 + 50 x98 - 47 x99 + 56 x100 - 76 x101 - 28 x102 
  - 61 x103 + 43 x104 + 66 x105 + 32 x106 + 18 x107 + 60 x108 - 81 x109 + 78 x110 - 68 x111 + 59 x112 
  - 16 x113 + 15 x114 + 98 x115 - 98 x116 - x202 <= -61
 e88: - 57 x92 - 85 x93 - 87 x94 + 26 x95 - 12 x96 + 41 x97 + 42 x98 - 53 x99 - 85 x100 - 100 x101 + 51 x102 
  + 13 x103 - 42 x104 + 56 x105 - 39 x106 + 35 x107 + 64 x108 - 41 x109 + x110 - 28 x111 + 8 x112 + 35 x113 
  - 87 x114 - 80 x115 + 44 x116 - x203 <= -47
 e89: - 45 x92 - 36 x93 + 55 x94 + 72 x95 + 34 x96 - 82 x97 - 89 x98 - 85 x99 - 99 x100 + 77 x101 - 36 x102 
  - 90 x103 - 86 x104 - 44 x105 + 74 x106 - 73 x107 + 23 x108 - 73 x109 - 81 x110 + 6 x111 + 21 x112 
  - 71 x113 - 9 x114 - 89 x115 + 74 x116 - x204 <= -66
 e90: - 7 x92 + 62 x93 + 16 x94 - 6 x95 - 19 x96 + 4 x97 - 80 x98 - 77 x99 + 74 x100 - 86 x101 - 90 x102 
  - 11 x103 - 3 x104 + 42 x105 - 57 x106 - 64 x107 - 66 x108 - 17 x109 - 87 x110 + 44 x111 + 78 x112 
  + 89 x113 + 84 x114 + 47 x115 - 27 x116 - x205 <= 39
 e91: 36 x92 + 68 x93 + 30 x94 + 92 x95 + 96 x96 - 90 x97 - 17 x98 + 24 x99 + 56 x100 + 65 x101 - 46 x102 
  + 51 x103 - 72 x104 + 82 x105 - 9 x106 - 30 x107 - 97 x108 + 95 x109 + 16 x110 - 20 x111 - 65 x113 
  - 35 x114 - 55 x115 - 30 x116 - x206 <= -32
 e92: - b2 - x207 = -1
 e93: - b3 - x208 = -1
 e94: - b4 - x209 = -1
 e95: - b5 - x210 = -1
 e96: - b6 - x211 = -1
 e97: - b7 - x212 = -1
 e98: - b8 - x213 = -1
 e99: - b9 - x214 = -1
 e100: - b10 - x215 = -1
 e101: - b11 - x216 = -1
 e102: - b12 - x217 = -1
 e103: - b13 - x218 = -1
 e104: - b14 - x219 = -1
 e105: - b15 - x220 = -1
 e106: - b16 - x221 = -1
 e107: - b17 - x222 = -1
 e108: - b18 - x223 = -1
 e109: - b19 - x224 = -1
 e110: - b20 - x225 = -1
 e111: - b21 - x226 = -1
 e112: - b22 - x227 = -1
 e113: - b23 - x228 = -1
 e114: - b24 - x229 = -1
 e115: - b25 - x230 = -1
 e116: - b26 - x231 = -1
 e117: - b27 - x232 = -1
 e118: - b28 - x233 = -1
 e119: - b29 - x234 = -1
 e120: - b30 - x235 = -1
 e121: - b31 - x236 = -1
 e122: - b32 - x237 = -1
 e123: - b33 - x238 = -1
 e124: - b34 - x239 = -1
 e125: - b35 - x240 = -1
 e126: - b36 - x241 = -1
 e127: - b37 - x242 = -1
 e128: - b38 - x243 = -1
 e129: - b39 - x244 = -1
 e130: - b40 - x245 = -1
 e131: - b41 - x246 = -1
 e132: - b42 - x247 = -1
 e133: - b43 - x248 = -1
 e134: - b44 - x249 = -1
 e135: - b45 - x250 = -1
 e136: - b46 - x251 = -1
 e137: - b47 - x252 = -1
 e138: - b48 - x253 = -1
 e139: - b49 - x254 = -1
 e140: - b50 - x255 = -1
 e141: - b51 - x256 = -1
 e142: - b52 - x257 = -1
 e143: - b53 - x258 = -1
 e144: - b54 - x259 = -1
 e145: - b55 - x260 = -1
 e146: - b56 - x261 = -1
 e147: - b57 - x262 = -1
 e148: - b58 - x263 = -1
 e149: - b59 - x264 = -1
 e150: - b60 - x265 = -1
 e151: - b61 - x266 = -1
 e152: - b62 - x267 = -1
 e153: - b63 - x268 = -1
 e154: - b64 - x269 = -1
 e155: - b65 - x270 = -1
 e156: - b66 - x271 = -1
 e157: - b67 - x272 = -1
 e158: - b68 - x273 = -1
 e159: - b69 - x274 = -1
 e160: - b70 - x275 = -1
 e161: - b71 - x276 = -1
 e162: - b72 - x277 = -1
 e163: - b73 - x278 = -1
 e164: - b74 - x279 = -1
 e165: - b75 - x280 = -1
 e166: - b76 - x281 = -1
 e167: - b77 - x282 = -1
 e168: - b78 - x283 = -1
 e169: - b79 - x284 = -1
 e170: - b80 - x285 = -1
 e171: - b81 - x286 = -1
 e172: - b82 - x287 = -1
 e173: - b83 - x288 = -1
 e174: - b84 - x289 = -1
 e175: - b85 - x290 = -1
 e176: - b86 - x291 = -1
 e177: - b87 - x292 = -1
 e178: - b88 - x293 = -1
 e179: - b89 - x294 = -1
 e180: - b90 - x295 = -1
 e181: - b91 - x296 = -1
 e182: [ x117 * x207 ] = 0
 e183: [ x118 * x208 ] = 0
 e184: [ x119 * x209 ] = 0
 e185: [ x120 * x210 ] = 0
 e186: [ x121 * x211 ] = 0
 e187: [ x122 * x212 ] = 0
 e188: [ x123 * x213 ] = 0
 e189: [ x124 * x214 ] = 0
 e190: [ x125 * x215 ] = 0
 e191: [ x126 * x216 ] = 0
 e192: [ x127 * x217 ] = 0
 e193: [ x128 * x218 ] = 0
 e194: [ x129 * x219 ] = 0
 e195: [ x130 * x220 ] = 0
 e196: [ x131 * x221 ] = 0
 e197: [ x132 * x222 ] = 0
 e198: [ x133 * x223 ] = 0
 e199: [ x134 * x224 ] = 0
 e200: [ x135 * x225 ] = 0
 e201: [ x136 * x226 ] = 0
 e202: [ x137 * x227 ] = 0
 e203: [ x138 * x228 ] = 0
 e204: [ x139 * x229 ] = 0
 e205: [ x140 * x230 ] = 0
 e206: [ x141 * x231 ] = 0
 e207: [ x142 * x232 ] = 0
 e208: [ x143 * x233 ] = 0
 e209: [ x144 * x234 ] = 0
 e210: [ x145 * x235 ] = 0
 e211: [ x146 * x236 ] = 0
 e212: [ x147 * x237 ] = 0
 e213: [ x148 * x238 ] = 0
 e214: [ x149 * x239 ] = 0
 e215: [ x150 * x240 ] = 0
 e216: [ x151 * x241 ] = 0
 e217: [ x152 * x242 ] = 0
 e218: [ x153 * x243 ] = 0
 e219: [ x154 * x244 ] = 0
 e220: [ x155 * x245 ] = 0
 e221: [ x156 * x246 ] = 0
 e222: [ x157 * x247 ] = 0
 e223: [ x158 * x248 ] = 0
 e224: [ x159 * x249 ] = 0
 e225: [ x160 * x250 ] = 0
 e226: [ x161 * x251 ] = 0
 e227: [ x162 * x252 ] = 0
 e228: [ x163 * x253 ] = 0
 e229: [ x164 * x254 ] = 0
 e230: [ x165 * x255 ] = 0
 e231: [ x166 * x256 ] = 0
 e232: [ x167 * x257 ] = 0
 e233: [ x168 * x258 ] = 0
 e234: [ x169 * x259 ] = 0
 e235: [ x170 * x260 ] = 0
 e236: [ x171 * x261 ] = 0
 e237: [ x172 * x262 ] = 0
 e238: [ x173 * x263 ] = 0
 e239: [ x174 * x264 ] = 0
 e240: [ x175 * x265 ] = 0
 e241: [ x176 * x266 ] = 0
 e242: [ x177 * x267 ] = 0
 e243: [ x178 * x268 ] = 0
 e244: [ x179 * x269 ] = 0
 e245: [ x180 * x270 ] = 0
 e246: [ x181 * x271 ] = 0
 e247: [ x182 * x272 ] = 0
 e248: [ x183 * x273 ] = 0
 e249: [ x184 * x274 ] = 0
 e250: [ x185 * x275 ] = 0
 e251: [ x186 * x276 ] = 0
 e252: [ x187 * x277 ] = 0
 e253: [ x188 * x278 ] = 0
 e254: [ x189 * x279 ] = 0
 e255: [ x190 * x280 ] = 0
 e256: [ x191 * x281 ] = 0
 e257: [ x192 * x282 ] = 0
 e258: [ x193 * x283 ] = 0
 e259: [ x194 * x284 ] = 0
 e260: [ x195 * x285 ] = 0
 e261: [ x196 * x286 ] = 0
 e262: [ x197 * x287 ] = 0
 e263: [ x198 * x288 ] = 0
 e264: [ x199 * x289 ] = 0
 e265: [ x200 * x290 ] = 0
 e266: [ x201 * x291 ] = 0
 e267: [ x202 * x292 ] = 0
 e268: [ x203 * x293 ] = 0
 e269: [ x204 * x294 ] = 0
 e270: [ x205 * x295 ] = 0
 e271: [ x206 * x296 ] = 0

Bounds
 x92 Free
 x93 Free
 x94 Free
 x95 Free
 x96 Free
 x97 Free
 x98 Free
 x99 Free
 x100 Free
 x101 Free
 x102 Free
 x103 Free
 x104 Free
 x105 Free
 x106 Free
 x107 Free
 x108 Free
 x109 Free
 x110 Free
 x111 Free
 x112 Free
 x113 Free
 x114 Free
 x115 Free
 x116 Free
 x207 Free
 x208 Free
 x209 Free
 x210 Free
 x211 Free
 x212 Free
 x213 Free
 x214 Free
 x215 Free
 x216 Free
 x217 Free
 x218 Free
 x219 Free
 x220 Free
 x221 Free
 x222 Free
 x223 Free
 x224 Free
 x225 Free
 x226 Free
 x227 Free
 x228 Free
 x229 Free
 x230 Free
 x231 Free
 x232 Free
 x233 Free
 x234 Free
 x235 Free
 x236 Free
 x237 Free
 x238 Free
 x239 Free
 x240 Free
 x241 Free
 x242 Free
 x243 Free
 x244 Free
 x245 Free
 x246 Free
 x247 Free
 x248 Free
 x249 Free
 x250 Free
 x251 Free
 x252 Free
 x253 Free
 x254 Free
 x255 Free
 x256 Free
 x257 Free
 x258 Free
 x259 Free
 x260 Free
 x261 Free
 x262 Free
 x263 Free
 x264 Free
 x265 Free
 x266 Free
 x267 Free
 x268 Free
 x269 Free
 x270 Free
 x271 Free
 x272 Free
 x273 Free
 x274 Free
 x275 Free
 x276 Free
 x277 Free
 x278 Free
 x279 Free
 x280 Free
 x281 Free
 x282 Free
 x283 Free
 x284 Free
 x285 Free
 x286 Free
 x287 Free
 x288 Free
 x289 Free
 x290 Free
 x291 Free
 x292 Free
 x293 Free
 x294 Free
 x295 Free
 x296 Free

Binary
 b2 b3 b4 b5 b6 b7 b8 b9 b10 b11 b12 b13 b14 b15 b16 b17 b18 b19 b20 b21 b22 b23 b24 b25 b26
 b27 b28 b29 b30 b31 b32 b33 b34 b35 b36 b37 b38 b39 b40 b41 b42 b43 b44 b45 b46 b47 b48 b49
 b50 b51 b52 b53 b54 b55 b56 b57 b58 b59 b60 b61 b62 b63 b64 b65 b66 b67 b68 b69 b70 b71 b72
 b73 b74 b75 b76 b77 b78 b79 b80 b81 b82 b83 b84 b85 b86 b87 b88 b89 b90 b91

End
