\ Equation counts
\     Total        E        G        L        N        X        C        B
\        80       62       18        0        0        0        0        0
\ 
\ Variable counts
\                  x        b        i      s1s      s2s       sc       si
\     Total     cont   binary  integer     sos1     sos2    scont     sint
\       143      143        0        0        0        0        0        0
\ 
\ Nonzero counts
\     Total    const       NL      DLL
\       961      505      456        0
\ 
Minimize
 obj: x2 + x3 + x4 + x5 + x6 + x7 + x8 + x9 + x10 + x11 + x12 + x13 + x14 + x15 + x16 + x17 + x18 + x19 
  + x20 + x21 + x22 + x23 + x24 + x25 + x26 + x27 + x28 + x29 + x30 + x31 + x32 + x33 + x34 + x35 + x36 
  + 0 x37 + 0 x38 + 0 x39 + 0 x40 + 0 x41 + 0 x42 + 0 x43 + 0 x44 + 0 x45 + 0 x46 + 0 x47 + 0 x48 + 0 x49 
  + 0 x50 + 0 x51 + 0 x52 + 0 x53 + 0 x54 + 0 x55 + 0 x56 + 0 x57 + 0 x58 + 0 x59 + 0 x60 + 0 x61 + 0 x62 
  + 0 x63 + 0 x64 + 0 x65 + 0 x66 + 0 x67 + 0 x68 + 0 x69 + 0 x70 + 0 x71 + 0 x72 + 0 x73 + 0 x74 + 0 x75 
  + 0 x76 + 0 x77 + 0 x78 + 0 x79 + 0 x80 + 0 x81 + 0 x82 + 0 x83 + 0 x84 + 0 x85 + 0 x86 + 0 x87 + 0 x88 
  + 0 x89 + 0 x90 + 0 x91 + 0 x92 + 0 x93 + 0 x94 + 0 x95 + 0 x96 + 0 x97 + 0 x98 + 0 x99 + 0 x100 + 0 x101 
  + 0 x102 + 0 x103 + 0 x104 + 0 x105 + 0 x106 + 0 x107 + 0 x108 + 0 x109 + 0 x110 + 0 x111 + 0 x112 
  + 0 x113 + 0 x114 + 0 x115 + 0 x116 + 0 x117 + 0 x118 + 0 x119 + 0 x120 + 0 x121 + 0 x122 + 0 x123 
  + 0 x124 + 0 x125 + 0 x126 + 0 x127 + 0 x128 + 0 x129 + 0 x130 + 0 x131 + 0 x132 + 0 x133 + 0 x134 
  + 0 x135 + 0 x136 + 0 x137 + 0 x138 + 0 x139 + 0 x140 + 0 x141 + 0 x142 + 0 x143 + 0 x144

Subject To
 e2: - x2 - x9 - x16 - x23 - x30 + x85 - x86 - x87 - x88 - x89 - x90 - x91 - x92 = 0
 e3: - x3 - x10 - x17 - x24 - x31 + x93 - x94 - x95 - x96 - x97 - x98 - x99 - x100 = 0
 e4: - x4 - x11 - x18 - x25 - x32 + x101 - x102 - x103 - x104 - x105 - x106 - x107 - x108 = 0
 e5: - x5 - x12 - x19 - x26 - x33 + x109 - x110 - x111 - x112 - x113 - x114 - x115 - x116 = 0
 e6: - x6 - x13 - x20 - x27 - x34 - x117 - x118 - x119 - x120 - x121 - x122 - x123 = -80
 e7: - x7 - x14 - x21 - x28 - x35 - x124 - x125 - x126 - x127 - x128 - x129 - x130 = -80
 e8: - x8 - x15 - x22 - x29 - x36 - x131 - x132 - x133 - x134 - x135 - x136 - x137 = -70
 e9: x85 - x86 - x94 - x102 - x110 - x117 - x124 - x131 - x138 = 0
 e10: - x87 + x93 - x95 - x103 - x111 - x118 - x125 - x132 - x139 = 0
 e11: - x88 - x96 + x101 - x104 - x112 - x119 - x126 - x133 - x140 = 0
 e12: - x89 - x97 - x105 + x109 - x113 - x120 - x127 - x134 - x141 = 0
 e13: - x90 - x98 - x106 - x114 - x121 - x128 - x135 - x142 = -30
 e14: - x91 - x99 - x107 - x115 - x122 - x129 - x136 - x143 = -100
 e15: - x92 - x100 - x108 - x116 - x123 - x130 - x137 - x144 = -90
 e16: - x2 - 6 x9 - 4 x16 - 7 x23 - 6 x30 - 421 x90 - 112 x91 - 491 x92 + [ x37 * x85 - x61 * x86 - x67 * x87 
  - x73 * x88 - x79 * x89 ] = 0
 e17: - 2 x2 - 2 x9 - 8 x16 - 9 x23 - 9 x30 - 316 x90 - 429 x91 - 476 x92 + [ x38 * x85 - x62 * x86 - x68 * x87 
  - x74 * x88 - x80 * x89 ] = 0
 e18: - 2 x2 - 2 x9 - 6 x16 - 5 x23 - 2 x30 - 391 x90 - 505 x91 - 197 x92 + [ x39 * x85 - x63 * x86 - x69 * x87 
  - x75 * x88 - x81 * x89 ] = 0
 e19: - 5 x2 - 3 x9 - 3 x16 - x23 - x30 - 352 x90 - 266 x91 - 493 x92 + [ x40 * x85 - x64 * x86 - x70 * x87 
  - x76 * x88 - x82 * x89 ] = 0
 e20: - 2 x2 - 6 x9 - 2 x16 - x23 - 6 x30 - 461 x90 - 481 x91 - 399 x92 + [ x41 * x85 - x65 * x86 - x71 * x87 
  - x77 * x88 - x83 * x89 ] = 0
 e21: - 10 x2 - x16 - 4 x30 - 489 x90 - 505 x91 - 495 x92 + [ x42 * x85 - x66 * x86 - x72 * x87 - x78 * x88 
  - x84 * x89 ] = 0
 e22: - x3 - 6 x10 - 4 x17 - 7 x24 - 6 x31 - 421 x98 - 112 x99 - 491 x100 + [ x43 * x93 - x61 * x94 - x67 * x95 
  - x73 * x96 - x79 * x97 ] = 0
 e23: - 2 x3 - 2 x10 - 8 x17 - 9 x24 - 9 x31 - 316 x98 - 429 x99 - 476 x100 + [ x44 * x93 - x62 * x94 
  - x68 * x95 - x74 * x96 - x80 * x97 ] = 0
 e24: - 2 x3 - 2 x10 - 6 x17 - 5 x24 - 2 x31 - 391 x98 - 505 x99 - 197 x100 + [ x45 * x93 - x63 * x94 
  - x69 * x95 - x75 * x96 - x81 * x97 ] = 0
 e25: - 5 x3 - 3 x10 - 3 x17 - x24 - x31 - 352 x98 - 266 x99 - 493 x100 + [ x46 * x93 - x64 * x94 - x70 * x95 
  - x76 * x96 - x82 * x97 ] = 0
 e26: - 2 x3 - 6 x10 - 2 x17 - x24 - 6 x31 - 461 x98 - 481 x99 - 399 x100 + [ x47 * x93 - x65 * x94 - x71 * x95 
  - x77 * x96 - x83 * x97 ] = 0
 e27: - 10 x3 - x17 - 4 x31 - 489 x98 - 505 x99 - 495 x100 + [ x48 * x93 - x66 * x94 - x72 * x95 - x78 * x96 
  - x84 * x97 ] = 0
 e28: - x4 - 6 x11 - 4 x18 - 7 x25 - 6 x32 - 421 x106 - 112 x107 - 491 x108 + [ x49 * x101 - x61 * x102 
  - x67 * x103 - x73 * x104 - x79 * x105 ] = 0
 e29: - 2 x4 - 2 x11 - 8 x18 - 9 x25 - 9 x32 - 316 x106 - 429 x107 - 476 x108 + [ x50 * x101 - x62 * x102 
  - x68 * x103 - x74 * x104 - x80 * x105 ] = 0
 e30: - 2 x4 - 2 x11 - 6 x18 - 5 x25 - 2 x32 - 391 x106 - 505 x107 - 197 x108 + [ x51 * x101 - x63 * x102 
  - x69 * x103 - x75 * x104 - x81 * x105 ] = 0
 e31: - 5 x4 - 3 x11 - 3 x18 - x25 - x32 - 352 x106 - 266 x107 - 493 x108 + [ x52 * x101 - x64 * x102 
  - x70 * x103 - x76 * x104 - x82 * x105 ] = 0
 e32: - 2 x4 - 6 x11 - 2 x18 - x25 - 6 x32 - 461 x106 - 481 x107 - 399 x108 + [ x53 * x101 - x65 * x102 
  - x71 * x103 - x77 * x104 - x83 * x105 ] = 0
 e33: - 10 x4 - x18 - 4 x32 - 489 x106 - 505 x107 - 495 x108 + [ x54 * x101 - x66 * x102 - x72 * x103 
  - x78 * x104 - x84 * x105 ] = 0
 e34: - x5 - 6 x12 - 4 x19 - 7 x26 - 6 x33 - 421 x114 - 112 x115 - 491 x116 + [ x55 * x109 - x61 * x110 
  - x67 * x111 - x73 * x112 - x79 * x113 ] = 0
 e35: - 2 x5 - 2 x12 - 8 x19 - 9 x26 - 9 x33 - 316 x114 - 429 x115 - 476 x116 + [ x56 * x109 - x62 * x110 
  - x68 * x111 - x74 * x112 - x80 * x113 ] = 0
 e36: - 2 x5 - 2 x12 - 6 x19 - 5 x26 - 2 x33 - 391 x114 - 505 x115 - 197 x116 + [ x57 * x109 - x63 * x110 
  - x69 * x111 - x75 * x112 - x81 * x113 ] = 0
 e37: - 5 x5 - 3 x12 - 3 x19 - x26 - x33 - 352 x114 - 266 x115 - 493 x116 + [ x58 * x109 - x64 * x110 
  - x70 * x111 - x76 * x112 - x82 * x113 ] = 0
 e38: - 2 x5 - 6 x12 - 2 x19 - x26 - 6 x33 - 461 x114 - 481 x115 - 399 x116 + [ x59 * x109 - x65 * x110 
  - x71 * x111 - x77 * x112 - x83 * x113 ] = 0
 e39: - 10 x5 - x19 - 4 x33 - 489 x114 - 505 x115 - 495 x116 + [ x60 * x109 - x66 * x110 - x72 * x111 
  - x78 * x112 - x84 * x113 ] = 0
 e40: - x6 - 6 x13 - 4 x20 - 7 x27 - 6 x34 - 421 x121 - 112 x122 - 491 x123 + [ - x61 * x117 - x67 * x118 
  - x73 * x119 - x79 * x120 ] >= -25520
 e41: - 2 x6 - 2 x13 - 8 x20 - 9 x27 - 9 x34 - 316 x121 - 429 x122 - 476 x123 + [ - x62 * x117 - x68 * x118 
  - x74 * x119 - x80 * x120 ] >= -24240
 e42: - 2 x6 - 2 x13 - 6 x20 - 5 x27 - 2 x34 - 391 x121 - 505 x122 - 197 x123 + [ - x63 * x117 - x69 * x118 
  - x75 * x119 - x81 * x120 ] >= -18320
 e43: - 5 x6 - 3 x13 - 3 x20 - x27 - x34 - 352 x121 - 266 x122 - 493 x123 + [ - x64 * x117 - x70 * x118 
  - x76 * x119 - x82 * x120 ] >= -23680
 e44: - 2 x6 - 6 x13 - 2 x20 - x27 - 6 x34 - 461 x121 - 481 x122 - 399 x123 + [ - x65 * x117 - x71 * x118 
  - x77 * x119 - x83 * x120 ] >= -1040
 e45: - 10 x6 - x20 - 4 x34 - 489 x121 - 505 x122 - 495 x123 + [ - x66 * x117 - x72 * x118 - x78 * x119 
  - x84 * x120 ] >= -36320
 e46: - x7 - 6 x14 - 4 x21 - 7 x28 - 6 x35 - 421 x128 - 112 x129 - 491 x130 + [ - x61 * x124 - x67 * x125 
  - x73 * x126 - x79 * x127 ] >= -3440
 e47: - 2 x7 - 2 x14 - 8 x21 - 9 x28 - 9 x35 - 316 x128 - 429 x129 - 476 x130 + [ - x62 * x124 - x68 * x125 
  - x74 * x126 - x80 * x127 ] >= -27360
 e48: - 2 x7 - 2 x14 - 6 x21 - 5 x28 - 2 x35 - 391 x128 - 505 x129 - 197 x130 + [ - x63 * x124 - x69 * x125 
  - x75 * x126 - x81 * x127 ] >= -18560
 e49: - 5 x7 - 3 x14 - 3 x21 - x28 - x35 - 352 x128 - 266 x129 - 493 x130 + [ - x64 * x124 - x70 * x125 
  - x76 * x126 - x82 * x127 ] >= -21200
 e50: - 2 x7 - 6 x14 - 2 x21 - x28 - 6 x35 - 461 x128 - 481 x129 - 399 x130 + [ - x65 * x124 - x71 * x125 
  - x77 * x126 - x83 * x127 ] >= -31440
 e51: - 10 x7 - x21 - 4 x35 - 489 x128 - 505 x129 - 495 x130 + [ - x66 * x124 - x72 * x125 - x78 * x126 
  - x84 * x127 ] >= -23920
 e52: - x8 - 6 x15 - 4 x22 - 7 x29 - 6 x36 - 421 x135 - 112 x136 - 491 x137 + [ - x61 * x131 - x67 * x132 
  - x73 * x133 - x79 * x134 ] >= -31640
 e53: - 2 x8 - 2 x15 - 8 x22 - 9 x29 - 9 x36 - 316 x135 - 429 x136 - 476 x137 + [ - x62 * x131 - x68 * x132 
  - x74 * x133 - x80 * x134 ] >= -4480
 e54: - 2 x8 - 2 x15 - 6 x22 - 5 x29 - 2 x36 - 391 x135 - 505 x136 - 197 x137 + [ - x63 * x131 - x69 * x132 
  - x75 * x133 - x81 * x134 ] >= -700
 e55: - 5 x8 - 3 x15 - 3 x22 - x29 - x36 - 352 x135 - 266 x136 - 493 x137 + [ - x64 * x131 - x70 * x132 
  - x76 * x133 - x82 * x134 ] >= -23380
 e56: - 2 x8 - 6 x15 - 2 x22 - x29 - 6 x36 - 461 x135 - 481 x136 - 399 x137 + [ - x65 * x131 - x71 * x132 
  - x77 * x133 - x83 * x134 ] >= -10010
 e57: - 10 x8 - x22 - 4 x36 - 489 x135 - 505 x136 - 495 x137 + [ - x66 * x131 - x72 * x132 - x78 * x133 
  - x84 * x134 ] >= -17080
 e58: [ x37 * x85 - x61 * x85 ] = -19900
 e59: [ x38 * x85 - x62 * x85 ] = -1700
 e60: [ x39 * x85 - x63 * x85 ] = -19700
 e61: [ x40 * x85 - x64 * x85 ] = -18600
 e62: [ x41 * x85 - x65 * x85 ] = -47600
 e63: [ x42 * x85 - x66 * x85 ] = -7300
 e64: [ x43 * x93 - x67 * x93 ] = -6700
 e65: [ x44 * x93 - x68 * x93 ] = -4300
 e66: [ x45 * x93 - x69 * x93 ] = -7700
 e67: [ x46 * x93 - x70 * x93 ] = -20800
 e68: [ x47 * x93 - x71 * x93 ] = -5000
 e69: [ x48 * x93 - x72 * x93 ] = -13600
 e70: [ x49 * x101 - x73 * x101 ] = -8640
 e71: [ x50 * x101 - x74 * x101 ] = -640
 e72: [ x51 * x101 - x75 * x101 ] = -2000
 e73: [ x52 * x101 - x76 * x101 ] = -600
 e74: [ x53 * x101 - x77 * x101 ] = -7040
 e75: [ x54 * x101 - x78 * x101 ] = -2480
 e76: [ x55 * x109 - x79 * x109 ] = -12240
 e77: [ x56 * x109 - x80 * x109 ] = -12420
 e78: [ x57 * x109 - x81 * x109 ] = -3150
 e79: [ x58 * x109 - x82 * x109 ] = -14400
 e80: [ x59 * x109 - x83 * x109 ] = -810
 e81: [ x60 * x109 - x84 * x109 ] = -15660

Bounds
 x2 <= 100000
 x3 <= 100000
 x4 <= 100000
 x5 <= 100000
 x6 <= 100000
 x7 <= 100000
 x8 <= 100000
 x9 <= 100000
 x10 <= 100000
 x11 <= 100000
 x12 <= 100000
 x13 <= 100000
 x14 <= 100000
 x15 <= 100000
 x16 <= 100000
 x17 <= 100000
 x18 <= 100000
 x19 <= 100000
 x20 <= 100000
 x21 <= 100000
 x22 <= 100000
 x23 <= 100000
 x24 <= 100000
 x25 <= 100000
 x26 <= 100000
 x27 <= 100000
 x28 <= 100000
 x29 <= 100000
 x30 <= 100000
 x31 <= 100000
 x32 <= 100000
 x33 <= 100000
 x34 <= 100000
 x35 <= 100000
 x36 <= 100000
 x37 <= 65
 x38 <= 465
 x39 <= 166
 x40 <= 56
 x41 <= 33
 x42 <= 346
 x43 <= 448
 x44 <= 414
 x45 <= 268
 x46 <= 191
 x47 <= 350
 x48 <= 243
 x49 <= 171
 x50 <= 496
 x51 <= 406
 x52 <= 486
 x53 <= 323
 x54 <= 355
 x55 <= 139
 x56 <= 211
 x57 <= 469
 x58 <= 65
 x59 <= 259
 x60 <= 328
 x61 <= 264
 x62 <= 482
 x63 <= 363
 x64 <= 242
 x65 <= 509
 x66 <= 419
 x67 <= 515
 x68 <= 457
 x69 <= 345
 x70 <= 399
 x71 <= 400
 x72 <= 379
 x73 <= 387
 x74 <= 512
 x75 <= 456
 x76 <= 501
 x77 <= 499
 x78 <= 417
 x79 <= 275
 x80 <= 349
 x81 <= 504
 x82 <= 225
 x83 <= 268
 x84 <= 502
 x85 <= 100
 x86 <= 100000
 x87 <= 100000
 x88 <= 100000
 x89 <= 100000
 x90 <= 100000
 x91 <= 100000
 x92 <= 100000
 x93 <= 100
 x94 <= 100000
 x95 <= 100000
 x96 <= 100000
 x97 <= 100000
 x98 <= 100000
 x99 <= 100000
 x100 <= 100000
 x101 <= 40
 x102 <= 100000
 x103 <= 100000
 x104 <= 100000
 x105 <= 100000
 x106 <= 100000
 x107 <= 100000
 x108 <= 100000
 x109 <= 90
 x110 <= 100000
 x111 <= 100000
 x112 <= 100000
 x113 <= 100000
 x114 <= 100000
 x115 <= 100000
 x116 <= 100000
 x117 <= 100000
 x118 <= 100000
 x119 <= 100000
 x120 <= 100000
 x121 <= 100000
 x122 <= 100000
 x123 <= 100000
 x124 <= 100000
 x125 <= 100000
 x126 <= 100000
 x127 <= 100000
 x128 <= 100000
 x129 <= 100000
 x130 <= 100000
 x131 <= 100000
 x132 <= 100000
 x133 <= 100000
 x134 <= 100000
 x135 <= 100000
 x136 <= 100000
 x137 <= 100000
 x138 <= 100000
 x139 <= 100000
 x140 <= 100000
 x141 <= 100000
 x142 <= 100000
 x143 <= 100000
 x144 <= 100000

End
