\ Equation counts
\     Total        E        G        L        N        X        C        B
\       233      219        0       14        0        0        0        0
\ 
\ Variable counts
\                  x        b        i      s1s      s2s       sc       si
\     Total     cont   binary  integer     sos1     sos2    scont     sint
\       243      243        0        0        0        0        0        0
\ 
\ Nonzero counts
\     Total    const       NL      DLL
\      1007      755      252        0
\ 
Minimize
 obj: x2 + x3 + x4 + x5 + x6 + x7 + 0 x8 + 0 x9 + 0 x10 + 0 x11 + 0 x12 + 0 x13 + 0 x14 + 0 x15 + 0 x16 
  + 0 x17 + 0 x18 + 0 x19 + 0 x20 + 0 x21 + 0 x22 + 0 x23 + 0 x24 + 0 x25 + 0 x26 + 0 x27 + 0 x28 + 0 x29 
  + 0 x30 + 0 x31 + 0 x32 + 0 x33 + 0 x34 + 0 x35 + 0 x36 + 0 x37 + 0 x38 + 0 x39 + 0 x40 + 0 x41 + 0 x42 
  + 0 x43 + 0 x44 + 0 x45 + 0 x46 + 0 x47 + 0 x48 + 0 x49 + 0 x50 + 0 x51 + 0 x52 + 0 x53 + 0 x54 + 0 x55 
  + 0 x56 + 0 x57 + 0 x58 + 0 x59 + 0 x60 + 0 x61 + 0 x62 + 0 x63 + 0 x64 + 0 x65 + 0 x66 + 0 x67 + 0 x68 
  + 0 x69 + 0 x70 + 0 x71 + 0 x72 + 0 x73 + 0 x74 + 0 x75 + 0 x76 + 0 x77 + 0 x78 + 0 x79 + 0 x80 + 0 x81 
  + 0 x82 + 0 x83 + 0 x84 + 0 x85 + 0 x86 + 0 x87 + 0 x88 + 0 x89 + 0 x90 + 0 x91 + 0 x92 + 0 x93 + 0 x94 
  + 0 x95 + 0 x96 + 0 x97 + 0 x98 + 0 x99 + 0 x100 + 0 x101 + 0 x102 + 0 x103 + 0 x104 + 0 x105 + 0 x106 
  + 0 x107 + 0 x108 + 0 x109 + 0 x110 + 0 x111 + 0 x112 + 0 x113 + 0 x114 + 0 x115 + 0 x116 + 0 x117 
  + 0 x118 + 0 x119 + 0 x120 + 0 x121 + 0 x122 + 0 x123 + 0 x124 + 0 x125 + 0 x126 + 0 x127 + 0 x128 
  + 0 x129 + 0 x130 + 0 x131 + 0 x132 + 0 x133 + 0 x134 + 0 x135 + 0 x136 + 0 x137 + 0 x138 + 0 x139 
  + 0 x140 + 0 x141 + 0 x142 + 0 x143 + 0 x144 + 0 x145 + 0 x146 + 0 x147 + 0 x148 + 0 x149 + 0 x150 
  + 0 x151 + 0 x152 + 0 x153 + 0 x154 + 0 x155 + 0 x156 + 0 x157 + 0 x158 + 0 x159 + 0 x160 + 0 x161 
  + 0 x162 + 0 x163 + 0 x164 + 0 x165 + 0 x166 + 0 x167 + 0 x168 + 0 x169 + 0 x170 + 0 x171 + 0 x172 
  + 0 x173 + 0 x174 + 0 x175 + 0 x176 + 0 x177 + 0 x178 + 0 x179 + 0 x180 + 0 x181 + 0 x182 + 0 x183 
  + 0 x184 + 0 x185 + 0 x186 + 0 x187 + 0 x188 + 0 x189 + 0 x190 + 0 x191 + 0 x192 + 0 x193 + 0 x194 
  + 0 x195 + 0 x196 + 0 x197 + 0 x198 + 0 x199 + 0 x200 + 0 x201 + 0 x202 + 0 x203 + 0 x204 + 0 x205 
  + 0 x206 + 0 x207 + 0 x208 + 0 x209 + 0 x210 + 0 x211 + 0 x212 + 0 x213 + 0 x214 + 0 x215 + 0 x216 
  + 0 x217 + 0 x218 + 0 x219 + 0 x220 + 0 x221 + 0 x222 + 0 x223 + 0 x224 + 0 x225 + 0 x226 + 0 x227 
  + 0 x228 + 0 x229 + 0 x230 + 0 x231 + 0 x232 + 0 x233 + 0 x234 + 0 x235 + 0 x236 + 0 x237 + 0 x238 
  + 0 x239 + 0 x240 + 0 x241 + 0 x242 + 0 x243 + 0 x244

Subject To
 e2: - x8 - x9 - x10 - x11 - x12 - x13 - x14 = -150
 e3: - x15 - x16 - x17 - x18 - x19 - x20 - x21 = -270
 e4: x2 - x9 - x16 - x22 - x23 - x24 - x25 - x26 - x27 = 0
 e5: x3 - x10 - x17 - x28 - x29 - x30 - x31 - x32 - x33 = 0
 e6: x4 - x11 - x18 - x34 - x35 - x36 - x37 - x38 - x39 = 0
 e7: x5 - x12 - x19 - x40 - x41 - x42 - x43 - x44 - x45 = 0
 e8: x6 - x13 - x20 - x46 - x47 - x48 - x49 - x50 - x51 = 0
 e9: x7 - x14 - x21 - x52 - x53 - x54 - x55 - x56 - x57 = 0
 e10: x2 - x22 - x28 - x34 - x40 - x46 - x52 - x58 = 0
 e11: x3 - x23 - x29 - x35 - x41 - x47 - x53 - x59 = 0
 e12: x4 - x24 - x30 - x36 - x42 - x48 - x54 - x60 = 0
 e13: x5 - x25 - x31 - x37 - x43 - x49 - x55 - x61 = 0
 e14: x6 - x26 - x32 - x38 - x44 - x50 - x56 - x62 = 0
 e15: x7 - x27 - x33 - x39 - x45 - x51 - x57 - x63 = 0
 e16: - x8 - x15 - x58 - x59 - x60 - x61 - x62 - x63 + x64 = 0
 e17: - x65 - x66 - x67 - x68 - x69 - x70 - x71 = -31500
 e18: - x72 - x73 - x74 - x75 - x76 - x77 - x78 = -105000
 e19: - x79 - x80 - x81 - x82 - x83 - x84 - x85 = -29700
 e20: - x86 - x87 - x88 - x89 - x90 - x91 - x92 = -37800
 e21: - x66 + 31500 x93 = 0
 e22: - x73 + 105000 x93 = 0
 e23: - x67 + 31500 x94 = 0
 e24: - x74 + 105000 x94 = 0
 e25: - x68 + 31500 x95 = 0
 e26: - x75 + 105000 x95 = 0
 e27: - x69 + 31500 x96 = 0
 e28: - x76 + 105000 x96 = 0
 e29: - x70 + 31500 x97 = 0
 e30: - x77 + 105000 x97 = 0
 e31: - x71 + 31500 x98 = 0
 e32: - x78 + 105000 x98 = 0
 e33: - x80 + 29700 x99 = 0
 e34: - x87 + 37800 x99 = 0
 e35: - x81 + 29700 x100 = 0
 e36: - x88 + 37800 x100 = 0
 e37: - x82 + 29700 x101 = 0
 e38: - x89 + 37800 x101 = 0
 e39: - x83 + 29700 x102 = 0
 e40: - x90 + 37800 x102 = 0
 e41: - x84 + 29700 x103 = 0
 e42: - x91 + 37800 x103 = 0
 e43: - x85 + 29700 x104 = 0
 e44: - x92 + 37800 x104 = 0
 e45: - x65 + 31500 x105 = 0
 e46: - x72 + 105000 x105 = 0
 e47: - x79 + 29700 x106 = 0
 e48: - x86 + 37800 x106 = 0
 e49: - x9 + 150 x93 = 0
 e50: - x10 + 150 x94 = 0
 e51: - x11 + 150 x95 = 0
 e52: - x12 + 150 x96 = 0
 e53: - x13 + 150 x97 = 0
 e54: - x14 + 150 x98 = 0
 e55: - x16 + 270 x99 = 0
 e56: - x17 + 270 x100 = 0
 e57: - x18 + 270 x101 = 0
 e58: - x19 + 270 x102 = 0
 e59: - x20 + 270 x103 = 0
 e60: - x21 + 270 x104 = 0
 e61: - x8 + 150 x105 = 0
 e62: - x15 + 270 x106 = 0
 e63: x93 + x94 + x95 + x96 + x97 + x98 + x105 = 1
 e64: x99 + x100 + x101 + x102 + x103 + x104 + x106 = 1
 e65: - 45 x2 + x66 + x80 + x107 + x108 + x109 + x110 + x111 + x112 <= 0
 e66: - 200 x2 + x73 + x87 + x113 + x114 + x115 + x116 + x117 + x118 <= 0
 e67: - 110 x3 + x67 + x81 + x119 + x120 + x121 + x122 + x123 + x124 <= 0
 e68: - 90 x3 + x74 + x88 + x125 + x126 + x127 + x128 + x129 + x130 <= 0
 e69: - 190 x4 + x68 + x82 + x131 + x132 + x133 + x134 + x135 + x136 <= 0
 e70: - 50 x4 + x75 + x89 + x137 + x138 + x139 + x140 + x141 + x142 <= 0
 e71: - 200 x5 + x69 + x83 + x143 + x144 + x145 + x146 + x147 + x148 <= 0
 e72: - 90 x5 + x76 + x90 + x149 + x150 + x151 + x152 + x153 + x154 <= 0
 e73: - 60 x6 + x70 + x84 + x155 + x156 + x157 + x158 + x159 + x160 <= 0
 e74: - 500 x6 + x77 + x91 + x161 + x162 + x163 + x164 + x165 + x166 <= 0
 e75: - 20 x7 + x71 + x85 + x167 + x168 + x169 + x170 + x171 + x172 <= 0
 e76: - 190 x7 + x78 + x92 + x173 + x174 + x175 + x176 + x177 + x178 <= 0
 e77: 0.1 x66 + 0.1 x80 + 0.1 x107 + 0.1 x108 + 0.1 x109 + 0.1 x110 + 0.1 x111 + 0.1 x112 - x179 = 0
 e78: x73 + x87 + x113 + x114 + x115 + x116 + x117 + x118 - x180 = 0
 e79: 0.3 x67 + 0.3 x81 + 0.3 x119 + 0.3 x120 + 0.3 x121 + 0.3 x122 + 0.3 x123 + 0.3 x124 - x181 = 0
 e80: 0.1 x74 + 0.1 x88 + 0.1 x125 + 0.1 x126 + 0.1 x127 + 0.1 x128 + 0.1 x129 + 0.1 x130 - x182 = 0
 e81: x68 + x82 + x131 + x132 + x133 + x134 + x135 + x136 - x183 = 0
 e82: 0.2 x75 + 0.2 x89 + 0.2 x137 + 0.2 x138 + 0.2 x139 + 0.2 x140 + 0.2 x141 + 0.2 x142 - x184 = 0
 e83: 0.5 x69 + 0.5 x83 + 0.5 x143 + 0.5 x144 + 0.5 x145 + 0.5 x146 + 0.5 x147 + 0.5 x148 - x185 = 0
 e84: x76 + x90 + x149 + x150 + x151 + x152 + x153 + x154 - x186 = 0
 e85: 0.1 x70 + 0.1 x84 + 0.1 x155 + 0.1 x156 + 0.1 x157 + 0.1 x158 + 0.1 x159 + 0.1 x160 - x187 = 0
 e86: 0.3 x77 + 0.3 x91 + 0.3 x161 + 0.3 x162 + 0.3 x163 + 0.3 x164 + 0.3 x165 + 0.3 x166 - x188 = 0
 e87: 0.8 x71 + 0.8 x85 + 0.8 x167 + 0.8 x168 + 0.8 x169 + 0.8 x170 + 0.8 x171 + 0.8 x172 - x189 = 0
 e88: 0.6 x78 + 0.6 x92 + 0.6 x173 + 0.6 x174 + 0.6 x175 + 0.6 x176 + 0.6 x177 + 0.6 x178 - x190 = 0
 e89: - x107 - x119 - x131 - x143 - x155 - x167 + x179 - x191 = 0
 e90: - x113 - x125 - x137 - x149 - x161 - x173 + x180 - x192 = 0
 e91: - x108 - x120 - x132 - x144 - x156 - x168 + x181 - x193 = 0
 e92: - x114 - x126 - x138 - x150 - x162 - x174 + x182 - x194 = 0
 e93: - x109 - x121 - x133 - x145 - x157 - x169 + x183 - x195 = 0
 e94: - x115 - x127 - x139 - x151 - x163 - x175 + x184 - x196 = 0
 e95: - x110 - x122 - x134 - x146 - x158 - x170 + x185 - x197 = 0
 e96: - x116 - x128 - x140 - x152 - x164 - x176 + x186 - x198 = 0
 e97: - x111 - x123 - x135 - x147 - x159 - x171 + x187 - x199 = 0
 e98: - x117 - x129 - x141 - x153 - x165 - x177 + x188 - x200 = 0
 e99: - x112 - x124 - x136 - x148 - x160 - x172 + x189 - x201 = 0
 e100: - x118 - x130 - x142 - x154 - x166 - x178 + x190 - x202 = 0
 e101: x203 + x204 + x205 + x206 + x207 + x208 + x209 = 1
 e102: x210 + x211 + x212 + x213 + x214 + x215 + x216 = 1
 e103: x217 + x218 + x219 + x220 + x221 + x222 + x223 = 1
 e104: x224 + x225 + x226 + x227 + x228 + x229 + x230 = 1
 e105: x231 + x232 + x233 + x234 + x235 + x236 + x237 = 1
 e106: x238 + x239 + x240 + x241 + x242 + x243 + x244 = 1
 e107: - 5 x64 + x65 + x79 + x191 + x193 + x195 + x197 + x199 + x201 <= 0
 e108: - 15 x64 + x72 + x86 + x192 + x194 + x196 + x198 + x200 + x202 <= 0
 e109: - x107 + [ x179 * x203 ] = 0
 e110: - x113 + [ x180 * x203 ] = 0
 e111: - x119 + [ x179 * x204 ] = 0
 e112: - x125 + [ x180 * x204 ] = 0
 e113: - x131 + [ x179 * x205 ] = 0
 e114: - x137 + [ x180 * x205 ] = 0
 e115: - x143 + [ x179 * x206 ] = 0
 e116: - x149 + [ x180 * x206 ] = 0
 e117: - x155 + [ x179 * x207 ] = 0
 e118: - x161 + [ x180 * x207 ] = 0
 e119: - x167 + [ x179 * x208 ] = 0
 e120: - x173 + [ x180 * x208 ] = 0
 e121: - x108 + [ x181 * x210 ] = 0
 e122: - x114 + [ x182 * x210 ] = 0
 e123: - x120 + [ x181 * x211 ] = 0
 e124: - x126 + [ x182 * x211 ] = 0
 e125: - x132 + [ x181 * x212 ] = 0
 e126: - x138 + [ x182 * x212 ] = 0
 e127: - x144 + [ x181 * x213 ] = 0
 e128: - x150 + [ x182 * x213 ] = 0
 e129: - x156 + [ x181 * x214 ] = 0
 e130: - x162 + [ x182 * x214 ] = 0
 e131: - x168 + [ x181 * x215 ] = 0
 e132: - x174 + [ x182 * x215 ] = 0
 e133: - x109 + [ x183 * x217 ] = 0
 e134: - x115 + [ x184 * x217 ] = 0
 e135: - x121 + [ x183 * x218 ] = 0
 e136: - x127 + [ x184 * x218 ] = 0
 e137: - x133 + [ x183 * x219 ] = 0
 e138: - x139 + [ x184 * x219 ] = 0
 e139: - x145 + [ x183 * x220 ] = 0
 e140: - x151 + [ x184 * x220 ] = 0
 e141: - x157 + [ x183 * x221 ] = 0
 e142: - x163 + [ x184 * x221 ] = 0
 e143: - x169 + [ x183 * x222 ] = 0
 e144: - x175 + [ x184 * x222 ] = 0
 e145: - x110 + [ x185 * x224 ] = 0
 e146: - x116 + [ x186 * x224 ] = 0
 e147: - x122 + [ x185 * x225 ] = 0
 e148: - x128 + [ x186 * x225 ] = 0
 e149: - x134 + [ x185 * x226 ] = 0
 e150: - x140 + [ x186 * x226 ] = 0
 e151: - x146 + [ x185 * x227 ] = 0
 e152: - x152 + [ x186 * x227 ] = 0
 e153: - x158 + [ x185 * x228 ] = 0
 e154: - x164 + [ x186 * x228 ] = 0
 e155: - x170 + [ x185 * x229 ] = 0
 e156: - x176 + [ x186 * x229 ] = 0
 e157: - x111 + [ x187 * x231 ] = 0
 e158: - x117 + [ x188 * x231 ] = 0
 e159: - x123 + [ x187 * x232 ] = 0
 e160: - x129 + [ x188 * x232 ] = 0
 e161: - x135 + [ x187 * x233 ] = 0
 e162: - x141 + [ x188 * x233 ] = 0
 e163: - x147 + [ x187 * x234 ] = 0
 e164: - x153 + [ x188 * x234 ] = 0
 e165: - x159 + [ x187 * x235 ] = 0
 e166: - x165 + [ x188 * x235 ] = 0
 e167: - x171 + [ x187 * x236 ] = 0
 e168: - x177 + [ x188 * x236 ] = 0
 e169: - x112 + [ x189 * x238 ] = 0
 e170: - x118 + [ x190 * x238 ] = 0
 e171: - x124 + [ x189 * x239 ] = 0
 e172: - x130 + [ x190 * x239 ] = 0
 e173: - x136 + [ x189 * x240 ] = 0
 e174: - x142 + [ x190 * x240 ] = 0
 e175: - x148 + [ x189 * x241 ] = 0
 e176: - x154 + [ x190 * x241 ] = 0
 e177: - x160 + [ x189 * x242 ] = 0
 e178: - x166 + [ x190 * x242 ] = 0
 e179: - x172 + [ x189 * x243 ] = 0
 e180: - x178 + [ x190 * x243 ] = 0
 e181: - x191 + [ x179 * x209 ] = 0
 e182: - x192 + [ x180 * x209 ] = 0
 e183: - x193 + [ x181 * x216 ] = 0
 e184: - x194 + [ x182 * x216 ] = 0
 e185: - x195 + [ x183 * x223 ] = 0
 e186: - x196 + [ x184 * x223 ] = 0
 e187: - x197 + [ x185 * x230 ] = 0
 e188: - x198 + [ x186 * x230 ] = 0
 e189: - x199 + [ x187 * x237 ] = 0
 e190: - x200 + [ x188 * x237 ] = 0
 e191: - x201 + [ x189 * x244 ] = 0
 e192: - x202 + [ x190 * x244 ] = 0
 e193: - x22 + [ x2 * x203 ] = 0
 e194: - x28 + [ x2 * x204 ] = 0
 e195: - x34 + [ x2 * x205 ] = 0
 e196: - x40 + [ x2 * x206 ] = 0
 e197: - x46 + [ x2 * x207 ] = 0
 e198: - x52 + [ x2 * x208 ] = 0
 e199: - x23 + [ x3 * x210 ] = 0
 e200: - x29 + [ x3 * x211 ] = 0
 e201: - x35 + [ x3 * x212 ] = 0
 e202: - x41 + [ x3 * x213 ] = 0
 e203: - x47 + [ x3 * x214 ] = 0
 e204: - x53 + [ x3 * x215 ] = 0
 e205: - x24 + [ x4 * x217 ] = 0
 e206: - x30 + [ x4 * x218 ] = 0
 e207: - x36 + [ x4 * x219 ] = 0
 e208: - x42 + [ x4 * x220 ] = 0
 e209: - x48 + [ x4 * x221 ] = 0
 e210: - x54 + [ x4 * x222 ] = 0
 e211: - x25 + [ x5 * x224 ] = 0
 e212: - x31 + [ x5 * x225 ] = 0
 e213: - x37 + [ x5 * x226 ] = 0
 e214: - x43 + [ x5 * x227 ] = 0
 e215: - x49 + [ x5 * x228 ] = 0
 e216: - x55 + [ x5 * x229 ] = 0
 e217: - x26 + [ x6 * x231 ] = 0
 e218: - x32 + [ x6 * x232 ] = 0
 e219: - x38 + [ x6 * x233 ] = 0
 e220: - x44 + [ x6 * x234 ] = 0
 e221: - x50 + [ x6 * x235 ] = 0
 e222: - x56 + [ x6 * x236 ] = 0
 e223: - x27 + [ x7 * x238 ] = 0
 e224: - x33 + [ x7 * x239 ] = 0
 e225: - x39 + [ x7 * x240 ] = 0
 e226: - x45 + [ x7 * x241 ] = 0
 e227: - x51 + [ x7 * x242 ] = 0
 e228: - x57 + [ x7 * x243 ] = 0
 e229: - x58 + [ x2 * x209 ] = 0
 e230: - x59 + [ x3 * x216 ] = 0
 e231: - x60 + [ x4 * x223 ] = 0
 e232: - x61 + [ x5 * x230 ] = 0
 e233: - x62 + [ x6 * x237 ] = 0
 e234: - x63 + [ x7 * x244 ] = 0

Bounds
 x2 <= 1000000
 x3 <= 1000000
 x4 <= 1000000
 x5 <= 1000000
 x6 <= 1000000
 x7 <= 1000000
 x8 <= 1000000
 x9 <= 1000000
 x10 <= 1000000
 x11 <= 1000000
 x12 <= 1000000
 x13 <= 1000000
 x14 <= 1000000
 x15 <= 1000000
 x16 <= 1000000
 x17 <= 1000000
 x18 <= 1000000
 x19 <= 1000000
 x20 <= 1000000
 x21 <= 1000000
 x22 <= 1000000
 x23 <= 1000000
 x24 <= 1000000
 x25 <= 1000000
 x26 <= 1000000
 x27 <= 1000000
 x28 <= 1000000
 x29 <= 1000000
 x30 <= 1000000
 x31 <= 1000000
 x32 <= 1000000
 x33 <= 1000000
 x34 <= 1000000
 x35 <= 1000000
 x36 <= 1000000
 x37 <= 1000000
 x38 <= 1000000
 x39 <= 1000000
 x40 <= 1000000
 x41 <= 1000000
 x42 <= 1000000
 x43 <= 1000000
 x44 <= 1000000
 x45 <= 1000000
 x46 <= 1000000
 x47 <= 1000000
 x48 <= 1000000
 x49 <= 1000000
 x50 <= 1000000
 x51 <= 1000000
 x52 <= 1000000
 x53 <= 1000000
 x54 <= 1000000
 x55 <= 1000000
 x56 <= 1000000
 x57 <= 1000000
 x58 <= 1000000
 x59 <= 1000000
 x60 <= 1000000
 x61 <= 1000000
 x62 <= 1000000
 x63 <= 1000000
 x64 <= 1000000
 x65 <= 1000000
 x66 <= 1000000
 x67 <= 1000000
 x68 <= 1000000
 x69 <= 1000000
 x70 <= 1000000
 x71 <= 1000000
 x72 <= 1000000
 x73 <= 1000000
 x74 <= 1000000
 x75 <= 1000000
 x76 <= 1000000
 x77 <= 1000000
 x78 <= 1000000
 x79 <= 1000000
 x80 <= 1000000
 x81 <= 1000000
 x82 <= 1000000
 x83 <= 1000000
 x84 <= 1000000
 x85 <= 1000000
 x86 <= 1000000
 x87 <= 1000000
 x88 <= 1000000
 x89 <= 1000000
 x90 <= 1000000
 x91 <= 1000000
 x92 <= 1000000
 x93 <= 1000000
 x94 <= 1000000
 x95 <= 1000000
 x96 <= 1000000
 x97 <= 1000000
 x98 <= 1000000
 x99 <= 1000000
 x100 <= 1000000
 x101 <= 1000000
 x102 <= 1000000
 x103 <= 1000000
 x104 <= 1000000
 x105 <= 1000000
 x106 <= 1000000
 x107 <= 1000000
 x108 <= 1000000
 x109 <= 1000000
 x110 <= 1000000
 x111 <= 1000000
 x112 <= 1000000
 x113 <= 1000000
 x114 <= 1000000
 x115 <= 1000000
 x116 <= 1000000
 x117 <= 1000000
 x118 <= 1000000
 x119 <= 1000000
 x120 <= 1000000
 x121 <= 1000000
 x122 <= 1000000
 x123 <= 1000000
 x124 <= 1000000
 x125 <= 1000000
 x126 <= 1000000
 x127 <= 1000000
 x128 <= 1000000
 x129 <= 1000000
 x130 <= 1000000
 x131 <= 1000000
 x132 <= 1000000
 x133 <= 1000000
 x134 <= 1000000
 x135 <= 1000000
 x136 <= 1000000
 x137 <= 1000000
 x138 <= 1000000
 x139 <= 1000000
 x140 <= 1000000
 x141 <= 1000000
 x142 <= 1000000
 x143 <= 1000000
 x144 <= 1000000
 x145 <= 1000000
 x146 <= 1000000
 x147 <= 1000000
 x148 <= 1000000
 x149 <= 1000000
 x150 <= 1000000
 x151 <= 1000000
 x152 <= 1000000
 x153 <= 1000000
 x154 <= 1000000
 x155 <= 1000000
 x156 <= 1000000
 x157 <= 1000000
 x158 <= 1000000
 x159 <= 1000000
 x160 <= 1000000
 x161 <= 1000000
 x162 <= 1000000
 x163 <= 1000000
 x164 <= 1000000
 x165 <= 1000000
 x166 <= 1000000
 x167 <= 1000000
 x168 <= 1000000
 x169 <= 1000000
 x170 <= 1000000
 x171 <= 1000000
 x172 <= 1000000
 x173 <= 1000000
 x174 <= 1000000
 x175 <= 1000000
 x176 <= 1000000
 x177 <= 1000000
 x178 <= 1000000
 x179 <= 1000000
 x180 <= 1000000
 x181 <= 1000000
 x182 <= 1000000
 x183 <= 1000000
 x184 <= 1000000
 x185 <= 1000000
 x186 <= 1000000
 x187 <= 1000000
 x188 <= 1000000
 x189 <= 1000000
 x190 <= 1000000
 x191 <= 1000000
 x192 <= 1000000
 x193 <= 1000000
 x194 <= 1000000
 x195 <= 1000000
 x196 <= 1000000
 x197 <= 1000000
 x198 <= 1000000
 x199 <= 1000000
 x200 <= 1000000
 x201 <= 1000000
 x202 <= 1000000
 x203 <= 1000000
 x204 <= 1000000
 x205 <= 1000000
 x206 <= 1000000
 x207 <= 1000000
 x208 <= 1000000
 x209 <= 1000000
 x210 <= 1000000
 x211 <= 1000000
 x212 <= 1000000
 x213 <= 1000000
 x214 <= 1000000
 x215 <= 1000000
 x216 <= 1000000
 x217 <= 1000000
 x218 <= 1000000
 x219 <= 1000000
 x220 <= 1000000
 x221 <= 1000000
 x222 <= 1000000
 x223 <= 1000000
 x224 <= 1000000
 x225 <= 1000000
 x226 <= 1000000
 x227 <= 1000000
 x228 <= 1000000
 x229 <= 1000000
 x230 <= 1000000
 x231 <= 1000000
 x232 <= 1000000
 x233 <= 1000000
 x234 <= 1000000
 x235 <= 1000000
 x236 <= 1000000
 x237 <= 1000000
 x238 <= 1000000
 x239 <= 1000000
 x240 <= 1000000
 x241 <= 1000000
 x242 <= 1000000
 x243 <= 1000000
 x244 <= 1000000

End
