\ Equation counts
\     Total        E        G        L        N        X        C        B
\       319      295        0       24        0        0        0        0
\ 
\ Variable counts
\                  x        b        i      s1s      s2s       sc       si
\     Total     cont   binary  integer     sos1     sos2    scont     sint
\       266      266        0        0        0        0        0        0
\ 
\ Nonzero counts
\     Total    const       NL      DLL
\      1169     1001      168        0
\ 
Minimize
 obj: x2 + x3 + x4 + 0 x5 + 0 x6 + 0 x7 + 0 x8 + 0 x9 + 0 x10 + 0 x11 + 0 x12 + 0 x13 + 0 x14 + 0 x15 
  + 0 x16 + 0 x17 + 0 x18 + 0 x19 + 0 x20 + 0 x21 + 0 x22 + 0 x23 + 0 x24 + 0 x25 + 0 x26 + 0 x27 + 0 x28 
  + 0 x29 + 0 x30 + 0 x31 + 0 x32 + 0 x33 + 0 x34 + 0 x35 + 0 x36 + 0 x37 + 0 x38 + 0 x39 + 0 x40 + 0 x41 
  + 0 x42 + 0 x43 + 0 x44 + 0 x45 + 0 x46 + 0 x47 + 0 x48 + 0 x49 + 0 x50 + 0 x51 + 0 x52 + 0 x53 + 0 x54 
  + 0 x55 + 0 x56 + 0 x57 + 0 x58 + 0 x59 + 0 x60 + 0 x61 + 0 x62 + 0 x63 + 0 x64 + 0 x65 + 0 x66 + 0 x67 
  + 0 x68 + 0 x69 + 0 x70 + 0 x71 + 0 x72 + 0 x73 + 0 x74 + 0 x75 + 0 x76 + 0 x77 + 0 x78 + 0 x79 + 0 x80 
  + 0 x81 + 0 x82 + 0 x83 + 0 x84 + 0 x85 + 0 x86 + 0 x87 + 0 x88 + 0 x89 + 0 x90 + 0 x91 + 0 x92 + 0 x93 
  + 0 x94 + 0 x95 + 0 x96 + 0 x97 + 0 x98 + 0 x99 + 0 x100 + 0 x101 + 0 x102 + 0 x103 + 0 x104 + 0 x105 
  + 0 x106 + 0 x107 + 0 x108 + 0 x109 + 0 x110 + 0 x111 + 0 x112 + 0 x113 + 0 x114 + 0 x115 + 0 x116 
  + 0 x117 + 0 x118 + 0 x119 + 0 x120 + 0 x121 + 0 x122 + 0 x123 + 0 x124 + 0 x125 + 0 x126 + 0 x127 
  + 0 x128 + 0 x129 + 0 x130 + 0 x131 + 0 x132 + 0 x133 + 0 x134 + 0 x135 + 0 x136 + 0 x137 + 0 x138 
  + 0 x139 + 0 x140 + 0 x141 + 0 x142 + 0 x143 + 0 x144 + 0 x145 + 0 x146 + 0 x147 + 0 x148 + 0 x149 
  + 0 x150 + 0 x151 + 0 x152 + 0 x153 + 0 x154 + 0 x155 + 0 x156 + 0 x157 + 0 x158 + 0 x159 + 0 x160 
  + 0 x161 + 0 x162 + 0 x163 + 0 x164 + 0 x165 + 0 x166 + 0 x167 + 0 x168 + 0 x169 + 0 x170 + 0 x171 
  + 0 x172 + 0 x173 + 0 x174 + 0 x175 + 0 x176 + 0 x177 + 0 x178 + 0 x179 + 0 x180 + 0 x181 + 0 x182 
  + 0 x183 + 0 x184 + 0 x185 + 0 x186 + 0 x187 + 0 x188 + 0 x189 + 0 x190 + 0 x191 + 0 x192 + 0 x193 
  + 0 x194 + 0 x195 + 0 x196 + 0 x197 + 0 x198 + 0 x199 + 0 x200 + 0 x201 + 0 x202 + 0 x203 + 0 x204 
  + 0 x205 + 0 x206 + 0 x207 + 0 x208 + 0 x209 + 0 x210 + 0 x211 + 0 x212 + 0 x213 + 0 x214 + 0 x215 
  + 0 x216 + 0 x217 + 0 x218 + 0 x219 + 0 x220 + 0 x221 + 0 x222 + 0 x223 + 0 x224 + 0 x225 + 0 x226 
  + 0 x227 + 0 x228 + 0 x229 + 0 x230 + 0 x231 + 0 x232 + 0 x233 + 0 x234 + 0 x235 + 0 x236 + 0 x237 
  + 0 x238 + 0 x239 + 0 x240 + 0 x241 + 0 x242 + 0 x243 + 0 x244 + 0 x245 + 0 x246 + 0 x247 + 0 x248 
  + 0 x249 + 0 x250 + 0 x251 + 0 x252 + 0 x253 + 0 x254 + 0 x255 + 0 x256 + 0 x257 + 0 x258 + 0 x259 
  + 0 x260 + 0 x261 + 0 x262 + 0 x263 + 0 x264 + 0 x265 + 0 x266 + 0 x267

Subject To
 e2: - x5 - x6 - x7 - x8 = -19
 e3: - x9 - x10 - x11 - x12 = -7
 e4: - x13 - x14 - x15 - x16 = -8
 e5: - x17 - x18 - x19 - x20 = -6
 e6: - x21 - x22 - x23 - x24 = -17
 e7: x2 - x6 - x10 - x14 - x18 - x22 - x25 - x26 - x27 = 0
 e8: x3 - x7 - x11 - x15 - x19 - x23 - x28 - x29 - x30 = 0
 e9: x4 - x8 - x12 - x16 - x20 - x24 - x31 - x32 - x33 = 0
 e10: x2 - x25 - x28 - x31 - x34 = 0
 e11: x3 - x26 - x29 - x32 - x35 = 0
 e12: x4 - x27 - x30 - x33 - x36 = 0
 e13: - x5 - x9 - x13 - x17 - x21 - x34 - x35 - x36 + x37 = 0
 e14: - x38 - x39 - x40 - x41 = -20900
 e15: - x42 - x43 - x44 - x45 = -9500
 e16: - x46 - x47 - x48 - x49 = -9500
 e17: - x50 - x51 - x52 - x53 = -3800
 e18: - x54 - x55 - x56 - x57 = -15200
 e19: - x58 - x59 - x60 - x61 = -1900
 e20: - x62 - x63 - x64 - x65 = -280
 e21: - x66 - x67 - x68 - x69 = -700
 e22: - x70 - x71 - x72 - x73 = -2100
 e23: - x74 - x75 - x76 - x77 = -6370
 e24: - x78 - x79 - x80 - x81 = -1400
 e25: - x82 - x83 - x84 - x85 = -1600
 e26: - x86 - x87 - x88 - x89 = -1760
 e27: - x90 - x91 - x92 - x93 = -1600
 e28: - x94 - x95 - x96 - x97 = -4000
 e29: - x98 - x99 - x100 - x101 = -1200
 e30: - x102 - x103 - x104 - x105 = -360
 e31: - x106 - x107 - x108 - x109 = -3060
 e32: - x110 - x111 - x112 - x113 = -3000
 e33: - x114 - x115 - x116 - x117 = -1200
 e34: - x118 - x119 - x120 - x121 = -4680
 e35: - x122 - x123 - x124 - x125 = -600
 e36: - x126 - x127 - x128 - x129 = -6800
 e37: - x130 - x131 - x132 - x133 = -2890
 e38: - x134 - x135 - x136 - x137 = -1700
 e39: - x138 - x139 - x140 - x141 = -5100
 e40: - x142 - x143 - x144 - x145 = -15300
 e41: - x39 + 20900 x146 = 0
 e42: - x43 + 9500 x146 = 0
 e43: - x47 + 9500 x146 = 0
 e44: - x51 + 3800 x146 = 0
 e45: - x55 + 15200 x146 = 0
 e46: - x59 + 1900 x146 = 0
 e47: - x40 + 20900 x147 = 0
 e48: - x44 + 9500 x147 = 0
 e49: - x48 + 9500 x147 = 0
 e50: - x52 + 3800 x147 = 0
 e51: - x56 + 15200 x147 = 0
 e52: - x60 + 1900 x147 = 0
 e53: - x41 + 20900 x148 = 0
 e54: - x45 + 9500 x148 = 0
 e55: - x49 + 9500 x148 = 0
 e56: - x53 + 3800 x148 = 0
 e57: - x57 + 15200 x148 = 0
 e58: - x61 + 1900 x148 = 0
 e59: - x63 + 280 x149 = 0
 e60: - x67 + 700 x149 = 0
 e61: - x71 + 2100 x149 = 0
 e62: - x75 + 6370 x149 = 0
 e63: - x79 + 1400 x149 = 0
 e64: - x64 + 280 x150 = 0
 e65: - x68 + 700 x150 = 0
 e66: - x72 + 2100 x150 = 0
 e67: - x76 + 6370 x150 = 0
 e68: - x80 + 1400 x150 = 0
 e69: - x65 + 280 x151 = 0
 e70: - x69 + 700 x151 = 0
 e71: - x73 + 2100 x151 = 0
 e72: - x77 + 6370 x151 = 0
 e73: - x81 + 1400 x151 = 0
 e74: - x83 + 1600 x152 = 0
 e75: - x87 + 1760 x152 = 0
 e76: - x91 + 1600 x152 = 0
 e77: - x95 + 4000 x152 = 0
 e78: - x99 + 1200 x152 = 0
 e79: - x84 + 1600 x153 = 0
 e80: - x88 + 1760 x153 = 0
 e81: - x92 + 1600 x153 = 0
 e82: - x96 + 4000 x153 = 0
 e83: - x100 + 1200 x153 = 0
 e84: - x85 + 1600 x154 = 0
 e85: - x89 + 1760 x154 = 0
 e86: - x93 + 1600 x154 = 0
 e87: - x97 + 4000 x154 = 0
 e88: - x101 + 1200 x154 = 0
 e89: - x103 + 360 x155 = 0
 e90: - x107 + 3060 x155 = 0
 e91: - x111 + 3000 x155 = 0
 e92: - x115 + 1200 x155 = 0
 e93: - x119 + 4680 x155 = 0
 e94: - x123 + 600 x155 = 0
 e95: - x104 + 360 x156 = 0
 e96: - x108 + 3060 x156 = 0
 e97: - x112 + 3000 x156 = 0
 e98: - x116 + 1200 x156 = 0
 e99: - x120 + 4680 x156 = 0
 e100: - x124 + 600 x156 = 0
 e101: - x105 + 360 x157 = 0
 e102: - x109 + 3060 x157 = 0
 e103: - x113 + 3000 x157 = 0
 e104: - x117 + 1200 x157 = 0
 e105: - x121 + 4680 x157 = 0
 e106: - x125 + 600 x157 = 0
 e107: - x127 + 6800 x158 = 0
 e108: - x131 + 2890 x158 = 0
 e109: - x135 + 1700 x158 = 0
 e110: - x139 + 5100 x158 = 0
 e111: - x143 + 15300 x158 = 0
 e112: - x128 + 6800 x159 = 0
 e113: - x132 + 2890 x159 = 0
 e114: - x136 + 1700 x159 = 0
 e115: - x140 + 5100 x159 = 0
 e116: - x144 + 15300 x159 = 0
 e117: - x129 + 6800 x160 = 0
 e118: - x133 + 2890 x160 = 0
 e119: - x137 + 1700 x160 = 0
 e120: - x141 + 5100 x160 = 0
 e121: - x145 + 15300 x160 = 0
 e122: - x38 + 20900 x161 = 0
 e123: - x42 + 9500 x161 = 0
 e124: - x46 + 9500 x161 = 0
 e125: - x50 + 3800 x161 = 0
 e126: - x54 + 15200 x161 = 0
 e127: - x58 + 1900 x161 = 0
 e128: - x62 + 280 x162 = 0
 e129: - x66 + 700 x162 = 0
 e130: - x70 + 2100 x162 = 0
 e131: - x74 + 6370 x162 = 0
 e132: - x78 + 1400 x162 = 0
 e133: - x82 + 1600 x163 = 0
 e134: - x86 + 1760 x163 = 0
 e135: - x90 + 1600 x163 = 0
 e136: - x94 + 4000 x163 = 0
 e137: - x98 + 1200 x163 = 0
 e138: - x102 + 360 x164 = 0
 e139: - x106 + 3060 x164 = 0
 e140: - x110 + 3000 x164 = 0
 e141: - x114 + 1200 x164 = 0
 e142: - x118 + 4680 x164 = 0
 e143: - x122 + 600 x164 = 0
 e144: - x126 + 6800 x165 = 0
 e145: - x130 + 2890 x165 = 0
 e146: - x134 + 1700 x165 = 0
 e147: - x138 + 5100 x165 = 0
 e148: - x142 + 15300 x165 = 0
 e149: - x6 + 19 x146 = 0
 e150: - x7 + 19 x147 = 0
 e151: - x8 + 19 x148 = 0
 e152: - x10 + 7 x149 = 0
 e153: - x11 + 7 x150 = 0
 e154: - x12 + 7 x151 = 0
 e155: - x14 + 8 x152 = 0
 e156: - x15 + 8 x153 = 0
 e157: - x16 + 8 x154 = 0
 e158: - x18 + 6 x155 = 0
 e159: - x19 + 6 x156 = 0
 e160: - x20 + 6 x157 = 0
 e161: - x22 + 17 x158 = 0
 e162: - x23 + 17 x159 = 0
 e163: - x24 + 17 x160 = 0
 e164: - x5 + 19 x161 = 0
 e165: - x9 + 7 x162 = 0
 e166: - x13 + 8 x163 = 0
 e167: - x17 + 6 x164 = 0
 e168: - x21 + 17 x165 = 0
 e169: x146 + x147 + x148 + x161 = 1
 e170: x149 + x150 + x151 + x162 = 1
 e171: x152 + x153 + x154 + x163 = 1
 e172: x155 + x156 + x157 + x164 = 1
 e173: x158 + x159 + x160 + x165 = 1
 e174: - 1100 x2 + x39 + x63 + x83 + x103 + x127 + x166 + x167 + x168 <= 0
 e175: - 1100 x2 + x43 + x87 + x107 + x131 + x169 + x170 + x171 <= 0
 e176: - 1100 x2 + x47 + x67 + x91 + x111 + x135 + x172 + x173 + x174 <= 0
 e177: - 1100 x2 + x51 + x71 + x95 + x115 + x139 + x175 + x176 + x177 <= 0
 e178: - 1100 x2 + x55 + x75 + x99 + x119 + x143 + x178 + x179 + x180 <= 0
 e179: - 1100 x2 + x59 + x79 + x123 + x181 + x182 + x183 <= 0
 e180: - 1100 x3 + x40 + x64 + x84 + x104 + x128 + x184 + x185 + x186 <= 0
 e181: - 1100 x3 + x44 + x88 + x108 + x132 + x187 + x188 + x189 <= 0
 e182: - 1100 x3 + x48 + x68 + x92 + x112 + x136 + x190 + x191 + x192 <= 0
 e183: - 1100 x3 + x52 + x72 + x96 + x116 + x140 + x193 + x194 + x195 <= 0
 e184: - 1100 x3 + x56 + x76 + x100 + x120 + x144 + x196 + x197 + x198 <= 0
 e185: - 1100 x3 + x60 + x80 + x124 + x199 + x200 + x201 <= 0
 e186: - 1100 x4 + x41 + x65 + x85 + x105 + x129 + x202 + x203 + x204 <= 0
 e187: - 1100 x4 + x45 + x89 + x109 + x133 + x205 + x206 + x207 <= 0
 e188: - 1100 x4 + x49 + x69 + x93 + x113 + x137 + x208 + x209 + x210 <= 0
 e189: - 1100 x4 + x53 + x73 + x97 + x117 + x141 + x211 + x212 + x213 <= 0
 e190: - 1100 x4 + x57 + x77 + x101 + x121 + x145 + x214 + x215 + x216 <= 0
 e191: - 1100 x4 + x61 + x81 + x125 + x217 + x218 + x219 <= 0
 e192: 0.01 x39 + 0.01 x63 + 0.01 x83 + 0.01 x103 + 0.01 x127 + 0.01 x166 + 0.01 x167 + 0.01 x168 - x220
   = 0
 e193: 0.01 x43 + 0.01 x87 + 0.01 x107 + 0.01 x131 + 0.01 x169 + 0.01 x170 + 0.01 x171 - x221 = 0
 e194: x47 + x67 + x91 + x111 + x135 + x172 + x173 + x174 - x222 = 0
 e195: x51 + x71 + x95 + x115 + x139 + x175 + x176 + x177 - x223 = 0
 e196: x55 + x75 + x99 + x119 + x143 + x178 + x179 + x180 - x224 = 0
 e197: x59 + x79 + x123 + x181 + x182 + x183 - x225 = 0
 e198: x40 + x64 + x84 + x104 + x128 + x184 + x185 + x186 - x226 = 0
 e199: x44 + x88 + x108 + x132 + x187 + x188 + x189 - x227 = 0
 e200: 0.01 x48 + 0.01 x68 + 0.01 x92 + 0.01 x112 + 0.01 x136 + 0.01 x190 + 0.01 x191 + 0.01 x192 - x228
   = 0
 e201: 0.01 x52 + 0.01 x72 + 0.01 x96 + 0.01 x116 + 0.01 x140 + 0.01 x193 + 0.01 x194 + 0.01 x195 - x229
   = 0
 e202: x56 + x76 + x100 + x120 + x144 + x196 + x197 + x198 - x230 = 0
 e203: x60 + x80 + x124 + x199 + x200 + x201 - x231 = 0
 e204: x41 + x65 + x85 + x105 + x129 + x202 + x203 + x204 - x232 = 0
 e205: x45 + x89 + x109 + x133 + x205 + x206 + x207 - x233 = 0
 e206: x49 + x69 + x93 + x113 + x137 + x208 + x209 + x210 - x234 = 0
 e207: x53 + x73 + x97 + x117 + x141 + x211 + x212 + x213 - x235 = 0
 e208: 0.01 x57 + 0.01 x77 + 0.01 x101 + 0.01 x121 + 0.01 x145 + 0.01 x214 + 0.01 x215 + 0.01 x216 - x236
   = 0
 e209: 0.01 x61 + 0.01 x81 + 0.01 x125 + 0.01 x217 + 0.01 x218 + 0.01 x219 - x237 = 0
 e210: - x166 - x184 - x202 + x220 - x238 = 0
 e211: - x169 - x187 - x205 + x221 - x239 = 0
 e212: - x172 - x190 - x208 + x222 - x240 = 0
 e213: - x175 - x193 - x211 + x223 - x241 = 0
 e214: - x178 - x196 - x214 + x224 - x242 = 0
 e215: - x181 - x199 - x217 + x225 - x243 = 0
 e216: - x167 - x185 - x203 + x226 - x244 = 0
 e217: - x170 - x188 - x206 + x227 - x245 = 0
 e218: - x173 - x191 - x209 + x228 - x246 = 0
 e219: - x176 - x194 - x212 + x229 - x247 = 0
 e220: - x179 - x197 - x215 + x230 - x248 = 0
 e221: - x182 - x200 - x218 + x231 - x249 = 0
 e222: - x168 - x186 - x204 + x232 - x250 = 0
 e223: - x171 - x189 - x207 + x233 - x251 = 0
 e224: - x174 - x192 - x210 + x234 - x252 = 0
 e225: - x177 - x195 - x213 + x235 - x253 = 0
 e226: - x180 - x198 - x216 + x236 - x254 = 0
 e227: - x183 - x201 - x219 + x237 - x255 = 0
 e228: x256 + x257 + x258 + x259 = 1
 e229: x260 + x261 + x262 + x263 = 1
 e230: x264 + x265 + x266 + x267 = 1
 e231: - 100 x37 + x38 + x62 + x82 + x102 + x126 + x238 + x244 + x250 <= 0
 e232: - 100 x37 + x42 + x86 + x106 + x130 + x239 + x245 + x251 <= 0
 e233: - 100 x37 + x46 + x66 + x90 + x110 + x134 + x240 + x246 + x252 <= 0
 e234: - 100 x37 + x50 + x70 + x94 + x114 + x138 + x241 + x247 + x253 <= 0
 e235: - 100 x37 + x54 + x74 + x98 + x118 + x142 + x242 + x248 + x254 <= 0
 e236: - 100 x37 + x58 + x78 + x122 + x243 + x249 + x255 <= 0
 e237: - x166 + [ x220 * x256 ] = 0
 e238: - x169 + [ x221 * x256 ] = 0
 e239: - x172 + [ x222 * x256 ] = 0
 e240: - x175 + [ x223 * x256 ] = 0
 e241: - x178 + [ x224 * x256 ] = 0
 e242: - x181 + [ x225 * x256 ] = 0
 e243: - x184 + [ x220 * x257 ] = 0
 e244: - x187 + [ x221 * x257 ] = 0
 e245: - x190 + [ x222 * x257 ] = 0
 e246: - x193 + [ x223 * x257 ] = 0
 e247: - x196 + [ x224 * x257 ] = 0
 e248: - x199 + [ x225 * x257 ] = 0
 e249: - x202 + [ x220 * x258 ] = 0
 e250: - x205 + [ x221 * x258 ] = 0
 e251: - x208 + [ x222 * x258 ] = 0
 e252: - x211 + [ x223 * x258 ] = 0
 e253: - x214 + [ x224 * x258 ] = 0
 e254: - x217 + [ x225 * x258 ] = 0
 e255: - x167 + [ x226 * x260 ] = 0
 e256: - x170 + [ x227 * x260 ] = 0
 e257: - x173 + [ x228 * x260 ] = 0
 e258: - x176 + [ x229 * x260 ] = 0
 e259: - x179 + [ x230 * x260 ] = 0
 e260: - x182 + [ x231 * x260 ] = 0
 e261: - x185 + [ x226 * x261 ] = 0
 e262: - x188 + [ x227 * x261 ] = 0
 e263: - x191 + [ x228 * x261 ] = 0
 e264: - x194 + [ x229 * x261 ] = 0
 e265: - x197 + [ x230 * x261 ] = 0
 e266: - x200 + [ x231 * x261 ] = 0
 e267: - x203 + [ x226 * x262 ] = 0
 e268: - x206 + [ x227 * x262 ] = 0
 e269: - x209 + [ x228 * x262 ] = 0
 e270: - x212 + [ x229 * x262 ] = 0
 e271: - x215 + [ x230 * x262 ] = 0
 e272: - x218 + [ x231 * x262 ] = 0
 e273: - x168 + [ x232 * x264 ] = 0
 e274: - x171 + [ x233 * x264 ] = 0
 e275: - x174 + [ x234 * x264 ] = 0
 e276: - x177 + [ x235 * x264 ] = 0
 e277: - x180 + [ x236 * x264 ] = 0
 e278: - x183 + [ x237 * x264 ] = 0
 e279: - x186 + [ x232 * x265 ] = 0
 e280: - x189 + [ x233 * x265 ] = 0
 e281: - x192 + [ x234 * x265 ] = 0
 e282: - x195 + [ x235 * x265 ] = 0
 e283: - x198 + [ x236 * x265 ] = 0
 e284: - x201 + [ x237 * x265 ] = 0
 e285: - x204 + [ x232 * x266 ] = 0
 e286: - x207 + [ x233 * x266 ] = 0
 e287: - x210 + [ x234 * x266 ] = 0
 e288: - x213 + [ x235 * x266 ] = 0
 e289: - x216 + [ x236 * x266 ] = 0
 e290: - x219 + [ x237 * x266 ] = 0
 e291: - x238 + [ x220 * x259 ] = 0
 e292: - x239 + [ x221 * x259 ] = 0
 e293: - x240 + [ x222 * x259 ] = 0
 e294: - x241 + [ x223 * x259 ] = 0
 e295: - x242 + [ x224 * x259 ] = 0
 e296: - x243 + [ x225 * x259 ] = 0
 e297: - x244 + [ x226 * x263 ] = 0
 e298: - x245 + [ x227 * x263 ] = 0
 e299: - x246 + [ x228 * x263 ] = 0
 e300: - x247 + [ x229 * x263 ] = 0
 e301: - x248 + [ x230 * x263 ] = 0
 e302: - x249 + [ x231 * x263 ] = 0
 e303: - x250 + [ x232 * x267 ] = 0
 e304: - x251 + [ x233 * x267 ] = 0
 e305: - x252 + [ x234 * x267 ] = 0
 e306: - x253 + [ x235 * x267 ] = 0
 e307: - x254 + [ x236 * x267 ] = 0
 e308: - x255 + [ x237 * x267 ] = 0
 e309: - x25 + [ x2 * x256 ] = 0
 e310: - x28 + [ x2 * x257 ] = 0
 e311: - x31 + [ x2 * x258 ] = 0
 e312: - x26 + [ x3 * x260 ] = 0
 e313: - x29 + [ x3 * x261 ] = 0
 e314: - x32 + [ x3 * x262 ] = 0
 e315: - x27 + [ x4 * x264 ] = 0
 e316: - x30 + [ x4 * x265 ] = 0
 e317: - x33 + [ x4 * x266 ] = 0
 e318: - x34 + [ x2 * x259 ] = 0
 e319: - x35 + [ x3 * x263 ] = 0
 e320: - x36 + [ x4 * x267 ] = 0

Bounds
 x2 <= 1000000
 x3 <= 1000000
 x4 <= 1000000
 x5 <= 1000000
 x6 <= 1000000
 x7 <= 1000000
 x8 <= 1000000
 x9 <= 1000000
 x10 <= 1000000
 x11 <= 1000000
 x12 <= 1000000
 x13 <= 1000000
 x14 <= 1000000
 x15 <= 1000000
 x16 <= 1000000
 x17 <= 1000000
 x18 <= 1000000
 x19 <= 1000000
 x20 <= 1000000
 x21 <= 1000000
 x22 <= 1000000
 x23 <= 1000000
 x24 <= 1000000
 x25 <= 1000000
 x26 <= 1000000
 x27 <= 1000000
 x28 <= 1000000
 x29 <= 1000000
 x30 <= 1000000
 x31 <= 1000000
 x32 <= 1000000
 x33 <= 1000000
 x34 <= 1000000
 x35 <= 1000000
 x36 <= 1000000
 x37 <= 1000000
 x38 <= 1000000
 x39 <= 1000000
 x40 <= 1000000
 x41 <= 1000000
 x42 <= 1000000
 x43 <= 1000000
 x44 <= 1000000
 x45 <= 1000000
 x46 <= 1000000
 x47 <= 1000000
 x48 <= 1000000
 x49 <= 1000000
 x50 <= 1000000
 x51 <= 1000000
 x52 <= 1000000
 x53 <= 1000000
 x54 <= 1000000
 x55 <= 1000000
 x56 <= 1000000
 x57 <= 1000000
 x58 <= 1000000
 x59 <= 1000000
 x60 <= 1000000
 x61 <= 1000000
 x62 <= 1000000
 x63 <= 1000000
 x64 <= 1000000
 x65 <= 1000000
 x66 <= 1000000
 x67 <= 1000000
 x68 <= 1000000
 x69 <= 1000000
 x70 <= 1000000
 x71 <= 1000000
 x72 <= 1000000
 x73 <= 1000000
 x74 <= 1000000
 x75 <= 1000000
 x76 <= 1000000
 x77 <= 1000000
 x78 <= 1000000
 x79 <= 1000000
 x80 <= 1000000
 x81 <= 1000000
 x82 <= 1000000
 x83 <= 1000000
 x84 <= 1000000
 x85 <= 1000000
 x86 <= 1000000
 x87 <= 1000000
 x88 <= 1000000
 x89 <= 1000000
 x90 <= 1000000
 x91 <= 1000000
 x92 <= 1000000
 x93 <= 1000000
 x94 <= 1000000
 x95 <= 1000000
 x96 <= 1000000
 x97 <= 1000000
 x98 <= 1000000
 x99 <= 1000000
 x100 <= 1000000
 x101 <= 1000000
 x102 <= 1000000
 x103 <= 1000000
 x104 <= 1000000
 x105 <= 1000000
 x106 <= 1000000
 x107 <= 1000000
 x108 <= 1000000
 x109 <= 1000000
 x110 <= 1000000
 x111 <= 1000000
 x112 <= 1000000
 x113 <= 1000000
 x114 <= 1000000
 x115 <= 1000000
 x116 <= 1000000
 x117 <= 1000000
 x118 <= 1000000
 x119 <= 1000000
 x120 <= 1000000
 x121 <= 1000000
 x122 <= 1000000
 x123 <= 1000000
 x124 <= 1000000
 x125 <= 1000000
 x126 <= 1000000
 x127 <= 1000000
 x128 <= 1000000
 x129 <= 1000000
 x130 <= 1000000
 x131 <= 1000000
 x132 <= 1000000
 x133 <= 1000000
 x134 <= 1000000
 x135 <= 1000000
 x136 <= 1000000
 x137 <= 1000000
 x138 <= 1000000
 x139 <= 1000000
 x140 <= 1000000
 x141 <= 1000000
 x142 <= 1000000
 x143 <= 1000000
 x144 <= 1000000
 x145 <= 1000000
 x146 <= 1000000
 x147 <= 1000000
 x148 <= 1000000
 x149 <= 1000000
 x150 <= 1000000
 x151 <= 1000000
 x152 <= 1000000
 x153 <= 1000000
 x154 <= 1000000
 x155 <= 1000000
 x156 <= 1000000
 x157 <= 1000000
 x158 <= 1000000
 x159 <= 1000000
 x160 <= 1000000
 x161 <= 1000000
 x162 <= 1000000
 x163 <= 1000000
 x164 <= 1000000
 x165 <= 1000000
 x166 <= 1000000
 x167 <= 1000000
 x168 <= 1000000
 x169 <= 1000000
 x170 <= 1000000
 x171 <= 1000000
 x172 <= 1000000
 x173 <= 1000000
 x174 <= 1000000
 x175 <= 1000000
 x176 <= 1000000
 x177 <= 1000000
 x178 <= 1000000
 x179 <= 1000000
 x180 <= 1000000
 x181 <= 1000000
 x182 <= 1000000
 x183 <= 1000000
 x184 <= 1000000
 x185 <= 1000000
 x186 <= 1000000
 x187 <= 1000000
 x188 <= 1000000
 x189 <= 1000000
 x190 <= 1000000
 x191 <= 1000000
 x192 <= 1000000
 x193 <= 1000000
 x194 <= 1000000
 x195 <= 1000000
 x196 <= 1000000
 x197 <= 1000000
 x198 <= 1000000
 x199 <= 1000000
 x200 <= 1000000
 x201 <= 1000000
 x202 <= 1000000
 x203 <= 1000000
 x204 <= 1000000
 x205 <= 1000000
 x206 <= 1000000
 x207 <= 1000000
 x208 <= 1000000
 x209 <= 1000000
 x210 <= 1000000
 x211 <= 1000000
 x212 <= 1000000
 x213 <= 1000000
 x214 <= 1000000
 x215 <= 1000000
 x216 <= 1000000
 x217 <= 1000000
 x218 <= 1000000
 x219 <= 1000000
 x220 <= 1000000
 x221 <= 1000000
 x222 <= 1000000
 x223 <= 1000000
 x224 <= 1000000
 x225 <= 1000000
 x226 <= 1000000
 x227 <= 1000000
 x228 <= 1000000
 x229 <= 1000000
 x230 <= 1000000
 x231 <= 1000000
 x232 <= 1000000
 x233 <= 1000000
 x234 <= 1000000
 x235 <= 1000000
 x236 <= 1000000
 x237 <= 1000000
 x238 <= 1000000
 x239 <= 1000000
 x240 <= 1000000
 x241 <= 1000000
 x242 <= 1000000
 x243 <= 1000000
 x244 <= 1000000
 x245 <= 1000000
 x246 <= 1000000
 x247 <= 1000000
 x248 <= 1000000
 x249 <= 1000000
 x250 <= 1000000
 x251 <= 1000000
 x252 <= 1000000
 x253 <= 1000000
 x254 <= 1000000
 x255 <= 1000000
 x256 <= 1000000
 x257 <= 1000000
 x258 <= 1000000
 x259 <= 1000000
 x260 <= 1000000
 x261 <= 1000000
 x262 <= 1000000
 x263 <= 1000000
 x264 <= 1000000
 x265 <= 1000000
 x266 <= 1000000
 x267 <= 1000000

End
