\ Equation counts
\     Total        E        G        L        N        X        C        B
\       343        0        0      343        0        0        0        0
\ 
\ Variable counts
\                  x        b        i      s1s      s2s       sc       si
\     Total     cont   binary  integer     sos1     sos2    scont     sint
\       180      108       72        0        0        0        0        0
\ 
\ Nonzero counts
\     Total    const       NL      DLL
\      1422     1386       36        0
\ 
Minimize
 obj: x2 + x3 + x4 + x5 + x6 + x7 + x8 + x9 + x10 + x11 + x12 + x13 + x14 + x15 + x16 + x17 + 0 x18 + 0 x19 
  + 0 x20 + 0 x21 + 0 x22 + 0 x23 + 0 x24 + 0 x25 + 0 x26 + 0 x27 + 0 x28 + 0 x29 + 0 x30 + 0 x31 + 0 x32 
  + 0 x33 + 0 x34 + 0 x35 + 0 x36 + 0 x37 + 0 x38 + 0 x39 + 0 x40 + 0 x41 + 0 x42 + 0 x43 + 0 x44 + 0 x45 
  + 0 x46 + 0 x47 + 0 x48 + 0 x49 + 0 x50 + 0 x51 + 0 x52 + 0 x53 + 0 b54 + 0 b55 + 0 x56 + 0 x57 + 0 b58 
  + 0 b59 + 0 x60 + 0 x61 + 0 b62 + 0 b63 + 0 x64 + 0 x65 + 0 b66 + 0 b67 + 0 x68 + 0 x69 + 0 b70 + 0 b71 
  + 0 x72 + 0 x73 + 0 b74 + 0 b75 + 0 x76 + 0 x77 + 0 b78 + 0 b79 + 0 x80 + 0 x81 + 0 b82 + 0 b83 + 0 b84 
  + 0 b85 + 0 x86 + 0 x87 + 0 b88 + 0 b89 + 0 x90 + 0 x91 + 0 b92 + 0 b93 + 0 x94 + 0 x95 + 0 b96 + 0 b97 
  + 0 x98 + 0 x99 + 0 b100 + 0 b101 + 0 x102 + 0 x103 + 0 b104 + 0 b105 + 0 x106 + 0 x107 + 0 b108 + 0 b109 
  + 0 b110 + 0 b111 + 0 x112 + 0 x113 + 0 b114 + 0 b115 + 0 x116 + 0 x117 + 0 b118 + 0 b119 + 0 x120 
  + 0 x121 + 0 b122 + 0 b123 + 0 x124 + 0 x125 + 0 b126 + 0 b127 + 0 x128 + 0 x129 + 0 b130 + 0 b131 
  + 0 b132 + 0 b133 + 0 x134 + 0 x135 + 0 b136 + 0 b137 + 0 x138 + 0 x139 + 0 b140 + 0 b141 + 0 x142 
  + 0 x143 + 0 b144 + 0 b145 + 0 x146 + 0 x147 + 0 b148 + 0 b149 + 0 b150 + 0 b151 + 0 x152 + 0 x153 
  + 0 b154 + 0 b155 + 0 x156 + 0 x157 + 0 b158 + 0 b159 + 0 x160 + 0 x161 + 0 b162 + 0 b163 + 0 b164 
  + 0 b165 + 0 x166 + 0 x167 + 0 b168 + 0 b169 + 0 x170 + 0 x171 + 0 b172 + 0 b173 + 0 b174 + 0 b175 
  + 0 x176 + 0 x177 + 0 b178 + 0 b179 + 0 b180 + 0 b181

Subject To
 e2: x18 - x19 <= 0
 e3: x18 + 0.5 x20 <= 12
 e4: - x18 + 0.5 x20 <= 0
 e5: 0.5 x21 + x22 <= 13
 e6: 0.5 x21 - x22 <= 0
 e7: x19 + 0.5 x23 <= 12
 e8: - x19 + 0.5 x23 <= 0
 e9: 0.5 x24 + x25 <= 13
 e10: 0.5 x24 - x25 <= 0
 e11: 0.5 x26 + x27 <= 12
 e12: 0.5 x26 - x27 <= 0
 e13: 0.5 x28 + x29 <= 13
 e14: 0.5 x28 - x29 <= 0
 e15: 0.5 x30 + x31 <= 12
 e16: 0.5 x30 - x31 <= 0
 e17: 0.5 x32 + x33 <= 13
 e18: 0.5 x32 - x33 <= 0
 e19: 0.5 x34 + x35 <= 12
 e20: 0.5 x34 - x35 <= 0
 e21: 0.5 x36 + x37 <= 13
 e22: 0.5 x36 - x37 <= 0
 e23: 0.5 x38 + x39 <= 12
 e24: 0.5 x38 - x39 <= 0
 e25: 0.5 x40 + x41 <= 13
 e26: 0.5 x40 - x41 <= 0
 e27: 0.5 x42 + x43 <= 12
 e28: 0.5 x42 - x43 <= 0
 e29: 0.5 x44 + x45 <= 13
 e30: 0.5 x44 - x45 <= 0
 e31: 0.5 x46 + x47 <= 12
 e32: 0.5 x46 - x47 <= 0
 e33: 0.5 x48 + x49 <= 13
 e34: 0.5 x48 - x49 <= 0
 e35: 0.5 x50 + x51 <= 12
 e36: 0.5 x50 - x51 <= 0
 e37: 0.5 x52 + x53 <= 13
 e38: 0.5 x52 - x53 <= 0
 e39: - x2 + x18 - x19 <= 0
 e40: - x2 - x18 + x19 <= 0
 e41: - x3 + x22 - x25 <= 0
 e42: - x3 - x22 + x25 <= 0
 e43: - x18 + x19 + 0.5 x20 + 0.5 x23 - 12 b54 - 12 b55 <= 0
 e44: x18 - x19 + 0.5 x20 + 0.5 x23 - 12 b54 + 12 b55 <= 12
 e45: 0.5 x21 - x22 + 0.5 x24 + x25 + 13 b54 - 13 b55 <= 13
 e46: 0.5 x21 + x22 + 0.5 x24 - x25 + 13 b54 + 13 b55 <= 26
 e47: x18 - x27 - x56 <= 0
 e48: - x18 + x27 - x56 <= 0
 e49: x22 - x29 - x57 <= 0
 e50: - x22 + x29 - x57 <= 0
 e51: - x18 + 0.5 x20 + 0.5 x26 + x27 - 12 b58 - 12 b59 <= 0
 e52: x18 + 0.5 x20 + 0.5 x26 - x27 - 12 b58 + 12 b59 <= 12
 e53: 0.5 x21 - x22 + 0.5 x28 + x29 + 13 b58 - 13 b59 <= 13
 e54: 0.5 x21 + x22 + 0.5 x28 - x29 + 13 b58 + 13 b59 <= 26
 e55: x18 - x31 - x60 <= 0
 e56: - x18 + x31 - x60 <= 0
 e57: x22 - x33 - x61 <= 0
 e58: - x22 + x33 - x61 <= 0
 e59: - x18 + 0.5 x20 + 0.5 x30 + x31 - 12 b62 - 12 b63 <= 0
 e60: x18 + 0.5 x20 + 0.5 x30 - x31 - 12 b62 + 12 b63 <= 12
 e61: 0.5 x21 - x22 + 0.5 x32 + x33 + 13 b62 - 13 b63 <= 13
 e62: 0.5 x21 + x22 + 0.5 x32 - x33 + 13 b62 + 13 b63 <= 26
 e63: x18 - x35 - x64 <= 0
 e64: - x18 + x35 - x64 <= 0
 e65: x22 - x37 - x65 <= 0
 e66: - x22 + x37 - x65 <= 0
 e67: - x18 + 0.5 x20 + 0.5 x34 + x35 - 12 b66 - 12 b67 <= 0
 e68: x18 + 0.5 x20 + 0.5 x34 - x35 - 12 b66 + 12 b67 <= 12
 e69: 0.5 x21 - x22 + 0.5 x36 + x37 + 13 b66 - 13 b67 <= 13
 e70: 0.5 x21 + x22 + 0.5 x36 - x37 + 13 b66 + 13 b67 <= 26
 e71: x18 - x39 - x68 <= 0
 e72: - x18 + x39 - x68 <= 0
 e73: x22 - x41 - x69 <= 0
 e74: - x22 + x41 - x69 <= 0
 e75: - x18 + 0.5 x20 + 0.5 x38 + x39 - 12 b70 - 12 b71 <= 0
 e76: x18 + 0.5 x20 + 0.5 x38 - x39 - 12 b70 + 12 b71 <= 12
 e77: 0.5 x21 - x22 + 0.5 x40 + x41 + 13 b70 - 13 b71 <= 13
 e78: 0.5 x21 + x22 + 0.5 x40 - x41 + 13 b70 + 13 b71 <= 26
 e79: x18 - x43 - x72 <= 0
 e80: - x18 + x43 - x72 <= 0
 e81: x22 - x45 - x73 <= 0
 e82: - x22 + x45 - x73 <= 0
 e83: - x18 + 0.5 x20 + 0.5 x42 + x43 - 12 b74 - 12 b75 <= 0
 e84: x18 + 0.5 x20 + 0.5 x42 - x43 - 12 b74 + 12 b75 <= 12
 e85: 0.5 x21 - x22 + 0.5 x44 + x45 + 13 b74 - 13 b75 <= 13
 e86: 0.5 x21 + x22 + 0.5 x44 - x45 + 13 b74 + 13 b75 <= 26
 e87: x18 - x47 - x76 <= 0
 e88: - x18 + x47 - x76 <= 0
 e89: x22 - x49 - x77 <= 0
 e90: - x22 + x49 - x77 <= 0
 e91: - x18 + 0.5 x20 + 0.5 x46 + x47 - 12 b78 - 12 b79 <= 0
 e92: x18 + 0.5 x20 + 0.5 x46 - x47 - 12 b78 + 12 b79 <= 12
 e93: 0.5 x21 - x22 + 0.5 x48 + x49 + 13 b78 - 13 b79 <= 13
 e94: 0.5 x21 + x22 + 0.5 x48 - x49 + 13 b78 + 13 b79 <= 26
 e95: x18 - x51 - x80 <= 0
 e96: - x18 + x51 - x80 <= 0
 e97: x22 - x53 - x81 <= 0
 e98: - x22 + x53 - x81 <= 0
 e99: - x18 + 0.5 x20 + 0.5 x50 + x51 - 12 b82 - 12 b83 <= 0
 e100: x18 + 0.5 x20 + 0.5 x50 - x51 - 12 b82 + 12 b83 <= 12
 e101: 0.5 x21 - x22 + 0.5 x52 + x53 + 13 b82 - 13 b83 <= 13
 e102: 0.5 x21 + x22 + 0.5 x52 - x53 + 13 b82 + 13 b83 <= 26
 e103: - x4 + x19 - x27 <= 0
 e104: - x4 - x19 + x27 <= 0
 e105: - x5 + x25 - x29 <= 0
 e106: - x5 - x25 + x29 <= 0
 e107: - x19 + 0.5 x23 + 0.5 x26 + x27 - 12 b84 - 12 b85 <= 0
 e108: x19 + 0.5 x23 + 0.5 x26 - x27 - 12 b84 + 12 b85 <= 12
 e109: 0.5 x24 - x25 + 0.5 x28 + x29 + 13 b84 - 13 b85 <= 13
 e110: 0.5 x24 + x25 + 0.5 x28 - x29 + 13 b84 + 13 b85 <= 26
 e111: x19 - x31 - x86 <= 0
 e112: - x19 + x31 - x86 <= 0
 e113: x25 - x33 - x87 <= 0
 e114: - x25 + x33 - x87 <= 0
 e115: - x19 + 0.5 x23 + 0.5 x30 + x31 - 12 b88 - 12 b89 <= 0
 e116: x19 + 0.5 x23 + 0.5 x30 - x31 - 12 b88 + 12 b89 <= 12
 e117: 0.5 x24 - x25 + 0.5 x32 + x33 + 13 b88 - 13 b89 <= 13
 e118: 0.5 x24 + x25 + 0.5 x32 - x33 + 13 b88 + 13 b89 <= 26
 e119: x19 - x35 - x90 <= 0
 e120: - x19 + x35 - x90 <= 0
 e121: x25 - x37 - x91 <= 0
 e122: - x25 + x37 - x91 <= 0
 e123: - x19 + 0.5 x23 + 0.5 x34 + x35 - 12 b92 - 12 b93 <= 0
 e124: x19 + 0.5 x23 + 0.5 x34 - x35 - 12 b92 + 12 b93 <= 12
 e125: 0.5 x24 - x25 + 0.5 x36 + x37 + 13 b92 - 13 b93 <= 13
 e126: 0.5 x24 + x25 + 0.5 x36 - x37 + 13 b92 + 13 b93 <= 26
 e127: x19 - x39 - x94 <= 0
 e128: - x19 + x39 - x94 <= 0
 e129: x25 - x41 - x95 <= 0
 e130: - x25 + x41 - x95 <= 0
 e131: - x19 + 0.5 x23 + 0.5 x38 + x39 - 12 b96 - 12 b97 <= 0
 e132: x19 + 0.5 x23 + 0.5 x38 - x39 - 12 b96 + 12 b97 <= 12
 e133: 0.5 x24 - x25 + 0.5 x40 + x41 + 13 b96 - 13 b97 <= 13
 e134: 0.5 x24 + x25 + 0.5 x40 - x41 + 13 b96 + 13 b97 <= 26
 e135: x19 - x43 - x98 <= 0
 e136: - x19 + x43 - x98 <= 0
 e137: x25 - x45 - x99 <= 0
 e138: - x25 + x45 - x99 <= 0
 e139: - x19 + 0.5 x23 + 0.5 x42 + x43 - 12 b100 - 12 b101 <= 0
 e140: x19 + 0.5 x23 + 0.5 x42 - x43 - 12 b100 + 12 b101 <= 12
 e141: 0.5 x24 - x25 + 0.5 x44 + x45 + 13 b100 - 13 b101 <= 13
 e142: 0.5 x24 + x25 + 0.5 x44 - x45 + 13 b100 + 13 b101 <= 26
 e143: x19 - x47 - x102 <= 0
 e144: - x19 + x47 - x102 <= 0
 e145: x25 - x49 - x103 <= 0
 e146: - x25 + x49 - x103 <= 0
 e147: - x19 + 0.5 x23 + 0.5 x46 + x47 - 12 b104 - 12 b105 <= 0
 e148: x19 + 0.5 x23 + 0.5 x46 - x47 - 12 b104 + 12 b105 <= 12
 e149: 0.5 x24 - x25 + 0.5 x48 + x49 + 13 b104 - 13 b105 <= 13
 e150: 0.5 x24 + x25 + 0.5 x48 - x49 + 13 b104 + 13 b105 <= 26
 e151: x19 - x51 - x106 <= 0
 e152: - x19 + x51 - x106 <= 0
 e153: x25 - x53 - x107 <= 0
 e154: - x25 + x53 - x107 <= 0
 e155: - x19 + 0.5 x23 + 0.5 x50 + x51 - 12 b108 - 12 b109 <= 0
 e156: x19 + 0.5 x23 + 0.5 x50 - x51 - 12 b108 + 12 b109 <= 12
 e157: 0.5 x24 - x25 + 0.5 x52 + x53 + 13 b108 - 13 b109 <= 13
 e158: 0.5 x24 + x25 + 0.5 x52 - x53 + 13 b108 + 13 b109 <= 26
 e159: - x6 + x27 - x31 <= 0
 e160: - x6 - x27 + x31 <= 0
 e161: - x7 + x29 - x33 <= 0
 e162: - x7 - x29 + x33 <= 0
 e163: 0.5 x26 - x27 + 0.5 x30 + x31 - 12 b110 - 12 b111 <= 0
 e164: 0.5 x26 + x27 + 0.5 x30 - x31 - 12 b110 + 12 b111 <= 12
 e165: 0.5 x28 - x29 + 0.5 x32 + x33 + 13 b110 - 13 b111 <= 13
 e166: 0.5 x28 + x29 + 0.5 x32 - x33 + 13 b110 + 13 b111 <= 26
 e167: x27 - x35 - x112 <= 0
 e168: - x27 + x35 - x112 <= 0
 e169: x29 - x37 - x113 <= 0
 e170: - x29 + x37 - x113 <= 0
 e171: 0.5 x26 - x27 + 0.5 x34 + x35 - 12 b114 - 12 b115 <= 0
 e172: 0.5 x26 + x27 + 0.5 x34 - x35 - 12 b114 + 12 b115 <= 12
 e173: 0.5 x28 - x29 + 0.5 x36 + x37 + 13 b114 - 13 b115 <= 13
 e174: 0.5 x28 + x29 + 0.5 x36 - x37 + 13 b114 + 13 b115 <= 26
 e175: x27 - x39 - x116 <= 0
 e176: - x27 + x39 - x116 <= 0
 e177: x29 - x41 - x117 <= 0
 e178: - x29 + x41 - x117 <= 0
 e179: 0.5 x26 - x27 + 0.5 x38 + x39 - 12 b118 - 12 b119 <= 0
 e180: 0.5 x26 + x27 + 0.5 x38 - x39 - 12 b118 + 12 b119 <= 12
 e181: 0.5 x28 - x29 + 0.5 x40 + x41 + 13 b118 - 13 b119 <= 13
 e182: 0.5 x28 + x29 + 0.5 x40 - x41 + 13 b118 + 13 b119 <= 26
 e183: x27 - x43 - x120 <= 0
 e184: - x27 + x43 - x120 <= 0
 e185: x29 - x45 - x121 <= 0
 e186: - x29 + x45 - x121 <= 0
 e187: 0.5 x26 - x27 + 0.5 x42 + x43 - 12 b122 - 12 b123 <= 0
 e188: 0.5 x26 + x27 + 0.5 x42 - x43 - 12 b122 + 12 b123 <= 12
 e189: 0.5 x28 - x29 + 0.5 x44 + x45 + 13 b122 - 13 b123 <= 13
 e190: 0.5 x28 + x29 + 0.5 x44 - x45 + 13 b122 + 13 b123 <= 26
 e191: x27 - x47 - x124 <= 0
 e192: - x27 + x47 - x124 <= 0
 e193: x29 - x49 - x125 <= 0
 e194: - x29 + x49 - x125 <= 0
 e195: 0.5 x26 - x27 + 0.5 x46 + x47 - 12 b126 - 12 b127 <= 0
 e196: 0.5 x26 + x27 + 0.5 x46 - x47 - 12 b126 + 12 b127 <= 12
 e197: 0.5 x28 - x29 + 0.5 x48 + x49 + 13 b126 - 13 b127 <= 13
 e198: 0.5 x28 + x29 + 0.5 x48 - x49 + 13 b126 + 13 b127 <= 26
 e199: x27 - x51 - x128 <= 0
 e200: - x27 + x51 - x128 <= 0
 e201: x29 - x53 - x129 <= 0
 e202: - x29 + x53 - x129 <= 0
 e203: 0.5 x26 - x27 + 0.5 x50 + x51 - 12 b130 - 12 b131 <= 0
 e204: 0.5 x26 + x27 + 0.5 x50 - x51 - 12 b130 + 12 b131 <= 12
 e205: 0.5 x28 - x29 + 0.5 x52 + x53 + 13 b130 - 13 b131 <= 13
 e206: 0.5 x28 + x29 + 0.5 x52 - x53 + 13 b130 + 13 b131 <= 26
 e207: - x8 + x31 - x35 <= 0
 e208: - x8 - x31 + x35 <= 0
 e209: - x9 + x33 - x37 <= 0
 e210: - x9 - x33 + x37 <= 0
 e211: 0.5 x30 - x31 + 0.5 x34 + x35 - 12 b132 - 12 b133 <= 0
 e212: 0.5 x30 + x31 + 0.5 x34 - x35 - 12 b132 + 12 b133 <= 12
 e213: 0.5 x32 - x33 + 0.5 x36 + x37 + 13 b132 - 13 b133 <= 13
 e214: 0.5 x32 + x33 + 0.5 x36 - x37 + 13 b132 + 13 b133 <= 26
 e215: x31 - x39 - x134 <= 0
 e216: - x31 + x39 - x134 <= 0
 e217: x33 - x41 - x135 <= 0
 e218: - x33 + x41 - x135 <= 0
 e219: 0.5 x30 - x31 + 0.5 x38 + x39 - 12 b136 - 12 b137 <= 0
 e220: 0.5 x30 + x31 + 0.5 x38 - x39 - 12 b136 + 12 b137 <= 12
 e221: 0.5 x32 - x33 + 0.5 x40 + x41 + 13 b136 - 13 b137 <= 13
 e222: 0.5 x32 + x33 + 0.5 x40 - x41 + 13 b136 + 13 b137 <= 26
 e223: x31 - x43 - x138 <= 0
 e224: - x31 + x43 - x138 <= 0
 e225: x33 - x45 - x139 <= 0
 e226: - x33 + x45 - x139 <= 0
 e227: 0.5 x30 - x31 + 0.5 x42 + x43 - 12 b140 - 12 b141 <= 0
 e228: 0.5 x30 + x31 + 0.5 x42 - x43 - 12 b140 + 12 b141 <= 12
 e229: 0.5 x32 - x33 + 0.5 x44 + x45 + 13 b140 - 13 b141 <= 13
 e230: 0.5 x32 + x33 + 0.5 x44 - x45 + 13 b140 + 13 b141 <= 26
 e231: x31 - x47 - x142 <= 0
 e232: - x31 + x47 - x142 <= 0
 e233: x33 - x49 - x143 <= 0
 e234: - x33 + x49 - x143 <= 0
 e235: 0.5 x30 - x31 + 0.5 x46 + x47 - 12 b144 - 12 b145 <= 0
 e236: 0.5 x30 + x31 + 0.5 x46 - x47 - 12 b144 + 12 b145 <= 12
 e237: 0.5 x32 - x33 + 0.5 x48 + x49 + 13 b144 - 13 b145 <= 13
 e238: 0.5 x32 + x33 + 0.5 x48 - x49 + 13 b144 + 13 b145 <= 26
 e239: x31 - x51 - x146 <= 0
 e240: - x31 + x51 - x146 <= 0
 e241: x33 - x53 - x147 <= 0
 e242: - x33 + x53 - x147 <= 0
 e243: 0.5 x30 - x31 + 0.5 x50 + x51 - 12 b148 - 12 b149 <= 0
 e244: 0.5 x30 + x31 + 0.5 x50 - x51 - 12 b148 + 12 b149 <= 12
 e245: 0.5 x32 - x33 + 0.5 x52 + x53 + 13 b148 - 13 b149 <= 13
 e246: 0.5 x32 + x33 + 0.5 x52 - x53 + 13 b148 + 13 b149 <= 26
 e247: - x10 + x35 - x39 <= 0
 e248: - x10 - x35 + x39 <= 0
 e249: - x11 + x37 - x41 <= 0
 e250: - x11 - x37 + x41 <= 0
 e251: 0.5 x34 - x35 + 0.5 x38 + x39 - 12 b150 - 12 b151 <= 0
 e252: 0.5 x34 + x35 + 0.5 x38 - x39 - 12 b150 + 12 b151 <= 12
 e253: 0.5 x36 - x37 + 0.5 x40 + x41 + 13 b150 - 13 b151 <= 13
 e254: 0.5 x36 + x37 + 0.5 x40 - x41 + 13 b150 + 13 b151 <= 26
 e255: x35 - x43 - x152 <= 0
 e256: - x35 + x43 - x152 <= 0
 e257: x37 - x45 - x153 <= 0
 e258: - x37 + x45 - x153 <= 0
 e259: 0.5 x34 - x35 + 0.5 x42 + x43 - 12 b154 - 12 b155 <= 0
 e260: 0.5 x34 + x35 + 0.5 x42 - x43 - 12 b154 + 12 b155 <= 12
 e261: 0.5 x36 - x37 + 0.5 x44 + x45 + 13 b154 - 13 b155 <= 13
 e262: 0.5 x36 + x37 + 0.5 x44 - x45 + 13 b154 + 13 b155 <= 26
 e263: x35 - x47 - x156 <= 0
 e264: - x35 + x47 - x156 <= 0
 e265: x37 - x49 - x157 <= 0
 e266: - x37 + x49 - x157 <= 0
 e267: 0.5 x34 - x35 + 0.5 x46 + x47 - 12 b158 - 12 b159 <= 0
 e268: 0.5 x34 + x35 + 0.5 x46 - x47 - 12 b158 + 12 b159 <= 12
 e269: 0.5 x36 - x37 + 0.5 x48 + x49 + 13 b158 - 13 b159 <= 13
 e270: 0.5 x36 + x37 + 0.5 x48 - x49 + 13 b158 + 13 b159 <= 26
 e271: x35 - x51 - x160 <= 0
 e272: - x35 + x51 - x160 <= 0
 e273: x37 - x53 - x161 <= 0
 e274: - x37 + x53 - x161 <= 0
 e275: 0.5 x34 - x35 + 0.5 x50 + x51 - 12 b162 - 12 b163 <= 0
 e276: 0.5 x34 + x35 + 0.5 x50 - x51 - 12 b162 + 12 b163 <= 12
 e277: 0.5 x36 - x37 + 0.5 x52 + x53 + 13 b162 - 13 b163 <= 13
 e278: 0.5 x36 + x37 + 0.5 x52 - x53 + 13 b162 + 13 b163 <= 26
 e279: - x12 + x39 - x43 <= 0
 e280: - x12 - x39 + x43 <= 0
 e281: - x13 + x41 - x45 <= 0
 e282: - x13 - x41 + x45 <= 0
 e283: 0.5 x38 - x39 + 0.5 x42 + x43 - 12 b164 - 12 b165 <= 0
 e284: 0.5 x38 + x39 + 0.5 x42 - x43 - 12 b164 + 12 b165 <= 12
 e285: 0.5 x40 - x41 + 0.5 x44 + x45 + 13 b164 - 13 b165 <= 13
 e286: 0.5 x40 + x41 + 0.5 x44 - x45 + 13 b164 + 13 b165 <= 26
 e287: x39 - x47 - x166 <= 0
 e288: - x39 + x47 - x166 <= 0
 e289: x41 - x49 - x167 <= 0
 e290: - x41 + x49 - x167 <= 0
 e291: 0.5 x38 - x39 + 0.5 x46 + x47 - 12 b168 - 12 b169 <= 0
 e292: 0.5 x38 + x39 + 0.5 x46 - x47 - 12 b168 + 12 b169 <= 12
 e293: 0.5 x40 - x41 + 0.5 x48 + x49 + 13 b168 - 13 b169 <= 13
 e294: 0.5 x40 + x41 + 0.5 x48 - x49 + 13 b168 + 13 b169 <= 26
 e295: x39 - x51 - x170 <= 0
 e296: - x39 + x51 - x170 <= 0
 e297: x41 - x53 - x171 <= 0
 e298: - x41 + x53 - x171 <= 0
 e299: 0.5 x38 - x39 + 0.5 x50 + x51 - 12 b172 - 12 b173 <= 0
 e300: 0.5 x38 + x39 + 0.5 x50 - x51 - 12 b172 + 12 b173 <= 12
 e301: 0.5 x40 - x41 + 0.5 x52 + x53 + 13 b172 - 13 b173 <= 13
 e302: 0.5 x40 + x41 + 0.5 x52 - x53 + 13 b172 + 13 b173 <= 26
 e303: - x14 + x43 - x47 <= 0
 e304: - x14 - x43 + x47 <= 0
 e305: - x15 + x45 - x49 <= 0
 e306: - x15 - x45 + x49 <= 0
 e307: 0.5 x42 - x43 + 0.5 x46 + x47 - 12 b174 - 12 b175 <= 0
 e308: 0.5 x42 + x43 + 0.5 x46 - x47 - 12 b174 + 12 b175 <= 12
 e309: 0.5 x44 - x45 + 0.5 x48 + x49 + 13 b174 - 13 b175 <= 13
 e310: 0.5 x44 + x45 + 0.5 x48 - x49 + 13 b174 + 13 b175 <= 26
 e311: x43 - x51 - x176 <= 0
 e312: - x43 + x51 - x176 <= 0
 e313: x45 - x53 - x177 <= 0
 e314: - x45 + x53 - x177 <= 0
 e315: 0.5 x42 - x43 + 0.5 x50 + x51 - 12 b178 - 12 b179 <= 0
 e316: 0.5 x42 + x43 + 0.5 x50 - x51 - 12 b178 + 12 b179 <= 12
 e317: 0.5 x44 - x45 + 0.5 x52 + x53 + 13 b178 - 13 b179 <= 13
 e318: 0.5 x44 + x45 + 0.5 x52 - x53 + 13 b178 + 13 b179 <= 26
 e319: - x16 + x47 - x51 <= 0
 e320: - x16 - x47 + x51 <= 0
 e321: - x17 + x49 - x53 <= 0
 e322: - x17 - x49 + x53 <= 0
 e323: 0.5 x46 - x47 + 0.5 x50 + x51 - 12 b180 - 12 b181 <= 0
 e324: 0.5 x46 + x47 + 0.5 x50 - x51 - 12 b180 + 12 b181 <= 12
 e325: 0.5 x48 - x49 + 0.5 x52 + x53 + 13 b180 - 13 b181 <= 13
 e326: 0.5 x48 + x49 + 0.5 x52 - x53 + 13 b180 + 13 b181 <= 26
 e327: [ - x20 * x21 ] <= -16
 e328: [ - x20 * x21 ] <= -16
 e329: [ - x23 * x24 ] <= -16
 e330: [ - x23 * x24 ] <= -16
 e331: [ - x26 * x28 ] <= -16
 e332: [ - x26 * x28 ] <= -16
 e333: [ - x30 * x32 ] <= -36
 e334: [ - x30 * x32 ] <= -36
 e335: [ - x34 * x36 ] <= -36
 e336: [ - x34 * x36 ] <= -36
 e337: [ - x38 * x40 ] <= -9
 e338: [ - x38 * x40 ] <= -9
 e339: [ - x42 * x44 ] <= -9
 e340: [ - x42 * x44 ] <= -9
 e341: [ - x46 * x48 ] <= -9
 e342: [ - x46 * x48 ] <= -9
 e343: [ - x50 * x52 ] <= -9
 e344: [ - x50 * x52 ] <= -9

Bounds
 x2 Free
 x3 Free
 x4 Free
 x5 Free
 x6 Free
 x7 Free
 x8 Free
 x9 Free
 x10 Free
 x11 Free
 x12 Free
 x13 Free
 x14 Free
 x15 Free
 x16 Free
 x17 Free
 x18 Free
 x19 Free
 2 <= x20 <= 8
 2 <= x21 <= 8
 x22 Free
 2 <= x23 <= 8
 2 <= x24 <= 8
 x25 Free
 2 <= x26 <= 8
 x27 Free
 2 <= x28 <= 8
 x29 Free
 3 <= x30 <= 12
 x31 Free
 3 <= x32 <= 12
 x33 Free
 3 <= x34 <= 12
 x35 Free
 3 <= x36 <= 12
 x37 Free
 1.5 <= x38 <= 6
 x39 Free
 1.5 <= x40 <= 6
 x41 Free
 1.5 <= x42 <= 6
 x43 Free
 1.5 <= x44 <= 6
 x45 Free
 1.5 <= x46 <= 6
 x47 Free
 1.5 <= x48 <= 6
 x49 Free
 1.5 <= x50 <= 6
 x51 Free
 1.5 <= x52 <= 6
 x53 Free
 x56 Free
 x57 Free
 x60 Free
 x61 Free
 x64 Free
 x65 Free
 x68 Free
 x69 Free
 x72 Free
 x73 Free
 x76 Free
 x77 Free
 x80 Free
 x81 Free
 x86 Free
 x87 Free
 x90 Free
 x91 Free
 x94 Free
 x95 Free
 x98 Free
 x99 Free
 x102 Free
 x103 Free
 x106 Free
 x107 Free
 x112 Free
 x113 Free
 x116 Free
 x117 Free
 x120 Free
 x121 Free
 x124 Free
 x125 Free
 x128 Free
 x129 Free
 x134 Free
 x135 Free
 x138 Free
 x139 Free
 x142 Free
 x143 Free
 x146 Free
 x147 Free
 x152 Free
 x153 Free
 x156 Free
 x157 Free
 x160 Free
 x161 Free
 x166 Free
 x167 Free
 x170 Free
 x171 Free
 x176 Free
 x177 Free

Binary
 b54 b55 b58 b59 b62 b63 b66 b67 b70 b71 b74 b75 b78 b79 b82 b83 b84 b85 b88 b89 b92 b93 b96
 b97 b100 b101 b104 b105 b108 b109 b110 b111 b114 b115 b118 b119 b122 b123 b126 b127 b130 b131
 b132 b133 b136 b137 b140 b141 b144 b145 b148 b149 b150 b151 b154 b155 b158 b159 b162 b163 b164
 b165 b168 b169 b172 b173 b174 b175 b178 b179 b180 b181

End
