\ Equation counts
\     Total        E        G        L        N        X        C        B
\       156      144       12        0        0        0        0        0
\ 
\ Variable counts
\                  x        b        i      s1s      s2s       sc       si
\     Total     cont   binary  integer     sos1     sos2    scont     sint
\       334      334        0        0        0        0        0        0
\ 
\ Nonzero counts
\     Total    const       NL      DLL
\      2516      776     1740        0
\ 
Minimize
 obj: x2 + x3 + x4 + x5 + x6 + x7 + x8 + x9 + x10 + x11 + x12 + x13 + x14 + x15 + x16 + x17 + x18 + x19 
  + x20 + x21 + x22 + x23 + x24 + x25 + x26 + x27 + x28 + x29 + x30 + x31 + x32 + x33 + x34 + x35 + x36 
  + x37 + x38 + x39 + x40 + x41 + x42 + x43 + x44 + x45 + x46 + x47 + x48 + x49 + 0 x50 + 0 x51 + 0 x52 
  + 0 x53 + 0 x54 + 0 x55 + 0 x56 + 0 x57 + 0 x58 + 0 x59 + 0 x60 + 0 x61 + 0 x62 + 0 x63 + 0 x64 + 0 x65 
  + 0 x66 + 0 x67 + 0 x68 + 0 x69 + 0 x70 + 0 x71 + 0 x72 + 0 x73 + 0 x74 + 0 x75 + 0 x76 + 0 x77 + 0 x78 
  + 0 x79 + 0 x80 + 0 x81 + 0 x82 + 0 x83 + 0 x84 + 0 x85 + 0 x86 + 0 x87 + 0 x88 + 0 x89 + 0 x90 + 0 x91 
  + 0 x92 + 0 x93 + 0 x94 + 0 x95 + 0 x96 + 0 x97 + 0 x98 + 0 x99 + 0 x100 + 0 x101 + 0 x102 + 0 x103 
  + 0 x104 + 0 x105 + 0 x106 + 0 x107 + 0 x108 + 0 x109 + 0 x110 + 0 x111 + 0 x112 + 0 x113 + 0 x114 
  + 0 x115 + 0 x116 + 0 x117 + 0 x118 + 0 x119 + 0 x120 + 0 x121 + 0 x122 + 0 x123 + 0 x124 + 0 x125 
  + 0 x126 + 0 x127 + 0 x128 + 0 x129 + 0 x130 + 0 x131 + 0 x132 + 0 x133 + 0 x134 + 0 x135 + 0 x136 
  + 0 x137 + 0 x138 + 0 x139 + 0 x140 + 0 x141 + 0 x142 + 0 x143 + 0 x144 + 0 x145 + 0 x146 + 0 x147 
  + 0 x148 + 0 x149 + 0 x150 + 0 x151 + 0 x152 + 0 x153 + 0 x154 + 0 x155 + 0 x156 + 0 x157 + 0 x158 
  + 0 x159 + 0 x160 + 0 x161 + 0 x162 + 0 x163 + 0 x164 + 0 x165 + 0 x166 + 0 x167 + 0 x168 + 0 x169 
  + 0 x170 + 0 x171 + 0 x172 + 0 x173 + 0 x174 + 0 x175 + 0 x176 + 0 x177 + 0 x178 + 0 x179 + 0 x180 
  + 0 x181 + 0 x182 + 0 x183 + 0 x184 + 0 x185 + 0 x186 + 0 x187 + 0 x188 + 0 x189 + 0 x190 + 0 x191 
  + 0 x192 + 0 x193 + 0 x194 + 0 x195 + 0 x196 + 0 x197 + 0 x198 + 0 x199 + 0 x200 + 0 x201 + 0 x202 
  + 0 x203 + 0 x204 + 0 x205 + 0 x206 + 0 x207 + 0 x208 + 0 x209 + 0 x210 + 0 x211 + 0 x212 + 0 x213 
  + 0 x214 + 0 x215 + 0 x216 + 0 x217 + 0 x218 + 0 x219 + 0 x220 + 0 x221 + 0 x222 + 0 x223 + 0 x224 
  + 0 x225 + 0 x226 + 0 x227 + 0 x228 + 0 x229 + 0 x230 + 0 x231 + 0 x232 + 0 x233 + 0 x234 + 0 x235 
  + 0 x236 + 0 x237 + 0 x238 + 0 x239 + 0 x240 + 0 x241 + 0 x242 + 0 x243 + 0 x244 + 0 x245 + 0 x246 
  + 0 x247 + 0 x248 + 0 x249 + 0 x250 + 0 x251 + 0 x252 + 0 x253 + 0 x254 + 0 x255 + 0 x256 + 0 x257 
  + 0 x258 + 0 x259 + 0 x260 + 0 x261 + 0 x262 + 0 x263 + 0 x264 + 0 x265 + 0 x266 + 0 x267 + 0 x268 
  + 0 x269 + 0 x270 + 0 x271 + 0 x272 + 0 x273 + 0 x274 + 0 x275 + 0 x276 + 0 x277 + 0 x278 + 0 x279 
  + 0 x280 + 0 x281 + 0 x282 + 0 x283 + 0 x284 + 0 x285 + 0 x286 + 0 x287 + 0 x288 + 0 x289 + 0 x290 
  + 0 x291 + 0 x292 + 0 x293 + 0 x294 + 0 x295 + 0 x296 + 0 x297 + 0 x298 + 0 x299 + 0 x300 + 0 x301 
  + 0 x302 + 0 x303 + 0 x304 + 0 x305 + 0 x306 + 0 x307 + 0 x308 + 0 x309 + 0 x310 + 0 x311 + 0 x312 
  + 0 x313 + 0 x314 + 0 x315 + 0 x316 + 0 x317 + 0 x318 + 0 x319 + 0 x320 + 0 x321 + 0 x322 + 0 x323 
  + 0 x324 + 0 x325 + 0 x326 + 0 x327 + 0 x328 + 0 x329 + 0 x330 + 0 x331 + 0 x332 + 0 x333 + 0 x334 
  + 0 x335

Subject To
 e2: - x2 - x14 - x26 - x38 + x170 - x171 - x172 - x173 - x174 - x175 - x176 - x177 - x178 - x179 - x180 
  - x181 - x182 = 0
 e3: - x3 - x15 - x27 - x39 + x183 - x184 - x185 - x186 - x187 - x188 - x189 - x190 - x191 - x192 - x193 
  - x194 - x195 = 0
 e4: - x4 - x16 - x28 - x40 + x196 - x197 - x198 - x199 - x200 - x201 - x202 - x203 - x204 - x205 - x206 
  - x207 - x208 = 0
 e5: - x5 - x17 - x29 - x41 + x209 - x210 - x211 - x212 - x213 - x214 - x215 - x216 - x217 - x218 - x219 
  - x220 - x221 = 0
 e6: - x6 - x18 - x30 - x42 + x222 - x223 - x224 - x225 - x226 - x227 - x228 - x229 - x230 - x231 - x232 
  - x233 - x234 = 0
 e7: - x7 - x19 - x31 - x43 + x235 - x236 - x237 - x238 - x239 - x240 - x241 - x242 - x243 - x244 - x245 
  - x246 - x247 = 0
 e8: - x8 - x20 - x32 - x44 + x248 - x249 - x250 - x251 - x252 - x253 - x254 - x255 - x256 - x257 - x258 
  - x259 - x260 = 0
 e9: - x9 - x21 - x33 - x45 + x261 - x262 - x263 - x264 - x265 - x266 - x267 - x268 - x269 - x270 - x271 
  - x272 - x273 = 0
 e10: - x10 - x22 - x34 - x46 + x274 - x275 - x276 - x277 - x278 - x279 - x280 - x281 - x282 - x283 - x284 
  - x285 - x286 = 0
 e11: - x11 - x23 - x35 - x47 + x287 - x288 - x289 - x290 - x291 - x292 - x293 - x294 - x295 - x296 - x297 
  - x298 - x299 = 0
 e12: - x12 - x24 - x36 - x48 - x300 - x301 - x302 - x303 - x304 - x305 - x306 - x307 - x308 - x309 - x310 
  - x311 = -185
 e13: - x13 - x25 - x37 - x49 - x312 - x313 - x314 - x315 - x316 - x317 - x318 - x319 - x320 - x321 - x322 
  - x323 = -95
 e14: x170 - x171 - x184 - x197 - x210 - x223 - x236 - x249 - x262 - x275 - x288 - x300 - x312 - x324
   = 0
 e15: - x172 + x183 - x185 - x198 - x211 - x224 - x237 - x250 - x263 - x276 - x289 - x301 - x313 - x325
   = 0
 e16: - x173 - x186 + x196 - x199 - x212 - x225 - x238 - x251 - x264 - x277 - x290 - x302 - x314 - x326
   = 0
 e17: - x174 - x187 - x200 + x209 - x213 - x226 - x239 - x252 - x265 - x278 - x291 - x303 - x315 - x327
   = 0
 e18: - x175 - x188 - x201 - x214 + x222 - x227 - x240 - x253 - x266 - x279 - x292 - x304 - x316 - x328
   = 0
 e19: - x176 - x189 - x202 - x215 - x228 + x235 - x241 - x254 - x267 - x280 - x293 - x305 - x317 - x329
   = 0
 e20: - x177 - x190 - x203 - x216 - x229 - x242 + x248 - x255 - x268 - x281 - x294 - x306 - x318 - x330
   = 0
 e21: - x178 - x191 - x204 - x217 - x230 - x243 - x256 + x261 - x269 - x282 - x295 - x307 - x319 - x331
   = 0
 e22: - x179 - x192 - x205 - x218 - x231 - x244 - x257 - x270 + x274 - x283 - x296 - x308 - x320 - x332
   = 0
 e23: - x180 - x193 - x206 - x219 - x232 - x245 - x258 - x271 - x284 + x287 - x297 - x309 - x321 - x333
   = 0
 e24: - x181 - x194 - x207 - x220 - x233 - x246 - x259 - x272 - x285 - x298 - x310 - x322 - x334 = -185
  
 e25: - x182 - x195 - x208 - x221 - x234 - x247 - x260 - x273 - x286 - x299 - x311 - x323 - x335 = -95
  
 e26: - 3 x2 - 4 x14 - 4 x38 - 1000 x181 - 120 x182 + [ x50 * x170 - x110 * x171 - x116 * x172 - x122 * x173 
  - x128 * x174 - x134 * x175 - x140 * x176 - x146 * x177 - x152 * x178 - x158 * x179 - x164 * x180 ]
   = 0
 e27: - 5 x2 - 6 x14 - 3 x26 - x38 - 110 x181 - 150 x182 + [ x51 * x170 - x111 * x171 - x117 * x172 - x123 * x173 
  - x129 * x174 - x135 * x175 - x141 * x176 - x147 * x177 - x153 * x178 - x159 * x179 - x165 * x180 ]
   = 0
 e28: - 2 x14 - 2 x26 - 2 x38 - 360 x181 - 400 x182 + [ x52 * x170 - x112 * x171 - x118 * x172 - x124 * x173 
  - x130 * x174 - x136 * x175 - x142 * x176 - x148 * x177 - x154 * x178 - x160 * x179 - x166 * x180 ]
   = 0
 e29: - 8 x2 - 7 x26 - 3 x38 - 60 x181 - 115 x182 + [ x53 * x170 - x113 * x171 - x119 * x172 - x125 * x173 
  - x131 * x174 - x137 * x175 - x143 * x176 - x149 * x177 - x155 * x178 - x161 * x179 - x167 * x180 ]
   = 0
 e30: - 2 x14 - 2 x38 - 678 x181 - 170 x182 + [ x54 * x170 - x114 * x171 - x120 * x172 - x126 * x173 
  - x132 * x174 - x138 * x175 - x144 * x176 - x150 * x177 - x156 * x178 - x162 * x179 - x168 * x180 ]
   = 0
 e31: - 4 x2 - 2 x26 - 8 x38 - 50 x181 - 75 x182 + [ x55 * x170 - x115 * x171 - x121 * x172 - x127 * x173 
  - x133 * x174 - x139 * x175 - x145 * x176 - x151 * x177 - x157 * x178 - x163 * x179 - x169 * x180 ]
   = 0
 e32: - 3 x3 - 4 x15 - 4 x39 - 1000 x194 - 120 x195 + [ x56 * x183 - x110 * x184 - x116 * x185 - x122 * x186 
  - x128 * x187 - x134 * x188 - x140 * x189 - x146 * x190 - x152 * x191 - x158 * x192 - x164 * x193 ]
   = 0
 e33: - 5 x3 - 6 x15 - 3 x27 - x39 - 110 x194 - 150 x195 + [ x57 * x183 - x111 * x184 - x117 * x185 - x123 * x186 
  - x129 * x187 - x135 * x188 - x141 * x189 - x147 * x190 - x153 * x191 - x159 * x192 - x165 * x193 ]
   = 0
 e34: - 2 x15 - 2 x27 - 2 x39 - 360 x194 - 400 x195 + [ x58 * x183 - x112 * x184 - x118 * x185 - x124 * x186 
  - x130 * x187 - x136 * x188 - x142 * x189 - x148 * x190 - x154 * x191 - x160 * x192 - x166 * x193 ]
   = 0
 e35: - 8 x3 - 7 x27 - 3 x39 - 60 x194 - 115 x195 + [ x59 * x183 - x113 * x184 - x119 * x185 - x125 * x186 
  - x131 * x187 - x137 * x188 - x143 * x189 - x149 * x190 - x155 * x191 - x161 * x192 - x167 * x193 ]
   = 0
 e36: - 2 x15 - 2 x39 - 678 x194 - 170 x195 + [ x60 * x183 - x114 * x184 - x120 * x185 - x126 * x186 
  - x132 * x187 - x138 * x188 - x144 * x189 - x150 * x190 - x156 * x191 - x162 * x192 - x168 * x193 ]
   = 0
 e37: - 4 x3 - 2 x27 - 8 x39 - 50 x194 - 75 x195 + [ x61 * x183 - x115 * x184 - x121 * x185 - x127 * x186 
  - x133 * x187 - x139 * x188 - x145 * x189 - x151 * x190 - x157 * x191 - x163 * x192 - x169 * x193 ]
   = 0
 e38: - 3 x4 - 4 x16 - 4 x40 - 1000 x207 - 120 x208 + [ x62 * x196 - x110 * x197 - x116 * x198 - x122 * x199 
  - x128 * x200 - x134 * x201 - x140 * x202 - x146 * x203 - x152 * x204 - x158 * x205 - x164 * x206 ]
   = 0
 e39: - 5 x4 - 6 x16 - 3 x28 - x40 - 110 x207 - 150 x208 + [ x63 * x196 - x111 * x197 - x117 * x198 - x123 * x199 
  - x129 * x200 - x135 * x201 - x141 * x202 - x147 * x203 - x153 * x204 - x159 * x205 - x165 * x206 ]
   = 0
 e40: - 2 x16 - 2 x28 - 2 x40 - 360 x207 - 400 x208 + [ x64 * x196 - x112 * x197 - x118 * x198 - x124 * x199 
  - x130 * x200 - x136 * x201 - x142 * x202 - x148 * x203 - x154 * x204 - x160 * x205 - x166 * x206 ]
   = 0
 e41: - 8 x4 - 7 x28 - 3 x40 - 60 x207 - 115 x208 + [ x65 * x196 - x113 * x197 - x119 * x198 - x125 * x199 
  - x131 * x200 - x137 * x201 - x143 * x202 - x149 * x203 - x155 * x204 - x161 * x205 - x167 * x206 ]
   = 0
 e42: - 2 x16 - 2 x40 - 678 x207 - 170 x208 + [ x66 * x196 - x114 * x197 - x120 * x198 - x126 * x199 
  - x132 * x200 - x138 * x201 - x144 * x202 - x150 * x203 - x156 * x204 - x162 * x205 - x168 * x206 ]
   = 0
 e43: - 4 x4 - 2 x28 - 8 x40 - 50 x207 - 75 x208 + [ x67 * x196 - x115 * x197 - x121 * x198 - x127 * x199 
  - x133 * x200 - x139 * x201 - x145 * x202 - x151 * x203 - x157 * x204 - x163 * x205 - x169 * x206 ]
   = 0
 e44: - 3 x5 - 4 x17 - 4 x41 - 1000 x220 - 120 x221 + [ x68 * x209 - x110 * x210 - x116 * x211 - x122 * x212 
  - x128 * x213 - x134 * x214 - x140 * x215 - x146 * x216 - x152 * x217 - x158 * x218 - x164 * x219 ]
   = 0
 e45: - 5 x5 - 6 x17 - 3 x29 - x41 - 110 x220 - 150 x221 + [ x69 * x209 - x111 * x210 - x117 * x211 - x123 * x212 
  - x129 * x213 - x135 * x214 - x141 * x215 - x147 * x216 - x153 * x217 - x159 * x218 - x165 * x219 ]
   = 0
 e46: - 2 x17 - 2 x29 - 2 x41 - 360 x220 - 400 x221 + [ x70 * x209 - x112 * x210 - x118 * x211 - x124 * x212 
  - x130 * x213 - x136 * x214 - x142 * x215 - x148 * x216 - x154 * x217 - x160 * x218 - x166 * x219 ]
   = 0
 e47: - 8 x5 - 7 x29 - 3 x41 - 60 x220 - 115 x221 + [ x71 * x209 - x113 * x210 - x119 * x211 - x125 * x212 
  - x131 * x213 - x137 * x214 - x143 * x215 - x149 * x216 - x155 * x217 - x161 * x218 - x167 * x219 ]
   = 0
 e48: - 2 x17 - 2 x41 - 678 x220 - 170 x221 + [ x72 * x209 - x114 * x210 - x120 * x211 - x126 * x212 
  - x132 * x213 - x138 * x214 - x144 * x215 - x150 * x216 - x156 * x217 - x162 * x218 - x168 * x219 ]
   = 0
 e49: - 4 x5 - 2 x29 - 8 x41 - 50 x220 - 75 x221 + [ x73 * x209 - x115 * x210 - x121 * x211 - x127 * x212 
  - x133 * x213 - x139 * x214 - x145 * x215 - x151 * x216 - x157 * x217 - x163 * x218 - x169 * x219 ]
   = 0
 e50: - 3 x6 - 4 x18 - 4 x42 - 1000 x233 - 120 x234 + [ x74 * x222 - x110 * x223 - x116 * x224 - x122 * x225 
  - x128 * x226 - x134 * x227 - x140 * x228 - x146 * x229 - x152 * x230 - x158 * x231 - x164 * x232 ]
   = 0
 e51: - 5 x6 - 6 x18 - 3 x30 - x42 - 110 x233 - 150 x234 + [ x75 * x222 - x111 * x223 - x117 * x224 - x123 * x225 
  - x129 * x226 - x135 * x227 - x141 * x228 - x147 * x229 - x153 * x230 - x159 * x231 - x165 * x232 ]
   = 0
 e52: - 2 x18 - 2 x30 - 2 x42 - 360 x233 - 400 x234 + [ x76 * x222 - x112 * x223 - x118 * x224 - x124 * x225 
  - x130 * x226 - x136 * x227 - x142 * x228 - x148 * x229 - x154 * x230 - x160 * x231 - x166 * x232 ]
   = 0
 e53: - 8 x6 - 7 x30 - 3 x42 - 60 x233 - 115 x234 + [ x77 * x222 - x113 * x223 - x119 * x224 - x125 * x225 
  - x131 * x226 - x137 * x227 - x143 * x228 - x149 * x229 - x155 * x230 - x161 * x231 - x167 * x232 ]
   = 0
 e54: - 2 x18 - 2 x42 - 678 x233 - 170 x234 + [ x78 * x222 - x114 * x223 - x120 * x224 - x126 * x225 
  - x132 * x226 - x138 * x227 - x144 * x228 - x150 * x229 - x156 * x230 - x162 * x231 - x168 * x232 ]
   = 0
 e55: - 4 x6 - 2 x30 - 8 x42 - 50 x233 - 75 x234 + [ x79 * x222 - x115 * x223 - x121 * x224 - x127 * x225 
  - x133 * x226 - x139 * x227 - x145 * x228 - x151 * x229 - x157 * x230 - x163 * x231 - x169 * x232 ]
   = 0
 e56: - 3 x7 - 4 x19 - 4 x43 - 1000 x246 - 120 x247 + [ x80 * x235 - x110 * x236 - x116 * x237 - x122 * x238 
  - x128 * x239 - x134 * x240 - x140 * x241 - x146 * x242 - x152 * x243 - x158 * x244 - x164 * x245 ]
   = 0
 e57: - 5 x7 - 6 x19 - 3 x31 - x43 - 110 x246 - 150 x247 + [ x81 * x235 - x111 * x236 - x117 * x237 - x123 * x238 
  - x129 * x239 - x135 * x240 - x141 * x241 - x147 * x242 - x153 * x243 - x159 * x244 - x165 * x245 ]
   = 0
 e58: - 2 x19 - 2 x31 - 2 x43 - 360 x246 - 400 x247 + [ x82 * x235 - x112 * x236 - x118 * x237 - x124 * x238 
  - x130 * x239 - x136 * x240 - x142 * x241 - x148 * x242 - x154 * x243 - x160 * x244 - x166 * x245 ]
   = 0
 e59: - 8 x7 - 7 x31 - 3 x43 - 60 x246 - 115 x247 + [ x83 * x235 - x113 * x236 - x119 * x237 - x125 * x238 
  - x131 * x239 - x137 * x240 - x143 * x241 - x149 * x242 - x155 * x243 - x161 * x244 - x167 * x245 ]
   = 0
 e60: - 2 x19 - 2 x43 - 678 x246 - 170 x247 + [ x84 * x235 - x114 * x236 - x120 * x237 - x126 * x238 
  - x132 * x239 - x138 * x240 - x144 * x241 - x150 * x242 - x156 * x243 - x162 * x244 - x168 * x245 ]
   = 0
 e61: - 4 x7 - 2 x31 - 8 x43 - 50 x246 - 75 x247 + [ x85 * x235 - x115 * x236 - x121 * x237 - x127 * x238 
  - x133 * x239 - x139 * x240 - x145 * x241 - x151 * x242 - x157 * x243 - x163 * x244 - x169 * x245 ]
   = 0
 e62: - 3 x8 - 4 x20 - 4 x44 - 1000 x259 - 120 x260 + [ x86 * x248 - x110 * x249 - x116 * x250 - x122 * x251 
  - x128 * x252 - x134 * x253 - x140 * x254 - x146 * x255 - x152 * x256 - x158 * x257 - x164 * x258 ]
   = 0
 e63: - 5 x8 - 6 x20 - 3 x32 - x44 - 110 x259 - 150 x260 + [ x87 * x248 - x111 * x249 - x117 * x250 - x123 * x251 
  - x129 * x252 - x135 * x253 - x141 * x254 - x147 * x255 - x153 * x256 - x159 * x257 - x165 * x258 ]
   = 0
 e64: - 2 x20 - 2 x32 - 2 x44 - 360 x259 - 400 x260 + [ x88 * x248 - x112 * x249 - x118 * x250 - x124 * x251 
  - x130 * x252 - x136 * x253 - x142 * x254 - x148 * x255 - x154 * x256 - x160 * x257 - x166 * x258 ]
   = 0
 e65: - 8 x8 - 7 x32 - 3 x44 - 60 x259 - 115 x260 + [ x89 * x248 - x113 * x249 - x119 * x250 - x125 * x251 
  - x131 * x252 - x137 * x253 - x143 * x254 - x149 * x255 - x155 * x256 - x161 * x257 - x167 * x258 ]
   = 0
 e66: - 2 x20 - 2 x44 - 678 x259 - 170 x260 + [ x90 * x248 - x114 * x249 - x120 * x250 - x126 * x251 
  - x132 * x252 - x138 * x253 - x144 * x254 - x150 * x255 - x156 * x256 - x162 * x257 - x168 * x258 ]
   = 0
 e67: - 4 x8 - 2 x32 - 8 x44 - 50 x259 - 75 x260 + [ x91 * x248 - x115 * x249 - x121 * x250 - x127 * x251 
  - x133 * x252 - x139 * x253 - x145 * x254 - x151 * x255 - x157 * x256 - x163 * x257 - x169 * x258 ]
   = 0
 e68: - 3 x9 - 4 x21 - 4 x45 - 1000 x272 - 120 x273 + [ x92 * x261 - x110 * x262 - x116 * x263 - x122 * x264 
  - x128 * x265 - x134 * x266 - x140 * x267 - x146 * x268 - x152 * x269 - x158 * x270 - x164 * x271 ]
   = 0
 e69: - 5 x9 - 6 x21 - 3 x33 - x45 - 110 x272 - 150 x273 + [ x93 * x261 - x111 * x262 - x117 * x263 - x123 * x264 
  - x129 * x265 - x135 * x266 - x141 * x267 - x147 * x268 - x153 * x269 - x159 * x270 - x165 * x271 ]
   = 0
 e70: - 2 x21 - 2 x33 - 2 x45 - 360 x272 - 400 x273 + [ x94 * x261 - x112 * x262 - x118 * x263 - x124 * x264 
  - x130 * x265 - x136 * x266 - x142 * x267 - x148 * x268 - x154 * x269 - x160 * x270 - x166 * x271 ]
   = 0
 e71: - 8 x9 - 7 x33 - 3 x45 - 60 x272 - 115 x273 + [ x95 * x261 - x113 * x262 - x119 * x263 - x125 * x264 
  - x131 * x265 - x137 * x266 - x143 * x267 - x149 * x268 - x155 * x269 - x161 * x270 - x167 * x271 ]
   = 0
 e72: - 2 x21 - 2 x45 - 678 x272 - 170 x273 + [ x96 * x261 - x114 * x262 - x120 * x263 - x126 * x264 
  - x132 * x265 - x138 * x266 - x144 * x267 - x150 * x268 - x156 * x269 - x162 * x270 - x168 * x271 ]
   = 0
 e73: - 4 x9 - 2 x33 - 8 x45 - 50 x272 - 75 x273 + [ x97 * x261 - x115 * x262 - x121 * x263 - x127 * x264 
  - x133 * x265 - x139 * x266 - x145 * x267 - x151 * x268 - x157 * x269 - x163 * x270 - x169 * x271 ]
   = 0
 e74: - 3 x10 - 4 x22 - 4 x46 - 1000 x285 - 120 x286 + [ x98 * x274 - x110 * x275 - x116 * x276 - x122 * x277 
  - x128 * x278 - x134 * x279 - x140 * x280 - x146 * x281 - x152 * x282 - x158 * x283 - x164 * x284 ]
   = 0
 e75: - 5 x10 - 6 x22 - 3 x34 - x46 - 110 x285 - 150 x286 + [ x99 * x274 - x111 * x275 - x117 * x276 
  - x123 * x277 - x129 * x278 - x135 * x279 - x141 * x280 - x147 * x281 - x153 * x282 - x159 * x283 - x165 * x284 
  ] = 0
 e76: - 2 x22 - 2 x34 - 2 x46 - 360 x285 - 400 x286 + [ x100 * x274 - x112 * x275 - x118 * x276 - x124 * x277 
  - x130 * x278 - x136 * x279 - x142 * x280 - x148 * x281 - x154 * x282 - x160 * x283 - x166 * x284 ]
   = 0
 e77: - 8 x10 - 7 x34 - 3 x46 - 60 x285 - 115 x286 + [ x101 * x274 - x113 * x275 - x119 * x276 - x125 * x277 
  - x131 * x278 - x137 * x279 - x143 * x280 - x149 * x281 - x155 * x282 - x161 * x283 - x167 * x284 ]
   = 0
 e78: - 2 x22 - 2 x46 - 678 x285 - 170 x286 + [ x102 * x274 - x114 * x275 - x120 * x276 - x126 * x277 
  - x132 * x278 - x138 * x279 - x144 * x280 - x150 * x281 - x156 * x282 - x162 * x283 - x168 * x284 ]
   = 0
 e79: - 4 x10 - 2 x34 - 8 x46 - 50 x285 - 75 x286 + [ x103 * x274 - x115 * x275 - x121 * x276 - x127 * x277 
  - x133 * x278 - x139 * x279 - x145 * x280 - x151 * x281 - x157 * x282 - x163 * x283 - x169 * x284 ]
   = 0
 e80: - 3 x11 - 4 x23 - 4 x47 - 1000 x298 - 120 x299 + [ x104 * x287 - x110 * x288 - x116 * x289 - x122 * x290 
  - x128 * x291 - x134 * x292 - x140 * x293 - x146 * x294 - x152 * x295 - x158 * x296 - x164 * x297 ]
   = 0
 e81: - 5 x11 - 6 x23 - 3 x35 - x47 - 110 x298 - 150 x299 + [ x105 * x287 - x111 * x288 - x117 * x289 
  - x123 * x290 - x129 * x291 - x135 * x292 - x141 * x293 - x147 * x294 - x153 * x295 - x159 * x296 - x165 * x297 
  ] = 0
 e82: - 2 x23 - 2 x35 - 2 x47 - 360 x298 - 400 x299 + [ x106 * x287 - x112 * x288 - x118 * x289 - x124 * x290 
  - x130 * x291 - x136 * x292 - x142 * x293 - x148 * x294 - x154 * x295 - x160 * x296 - x166 * x297 ]
   = 0
 e83: - 8 x11 - 7 x35 - 3 x47 - 60 x298 - 115 x299 + [ x107 * x287 - x113 * x288 - x119 * x289 - x125 * x290 
  - x131 * x291 - x137 * x292 - x143 * x293 - x149 * x294 - x155 * x295 - x161 * x296 - x167 * x297 ]
   = 0
 e84: - 2 x23 - 2 x47 - 678 x298 - 170 x299 + [ x108 * x287 - x114 * x288 - x120 * x289 - x126 * x290 
  - x132 * x291 - x138 * x292 - x144 * x293 - x150 * x294 - x156 * x295 - x162 * x296 - x168 * x297 ]
   = 0
 e85: - 4 x11 - 2 x35 - 8 x47 - 50 x298 - 75 x299 + [ x109 * x287 - x115 * x288 - x121 * x289 - x127 * x290 
  - x133 * x291 - x139 * x292 - x145 * x293 - x151 * x294 - x157 * x295 - x163 * x296 - x169 * x297 ]
   = 0
 e86: - 3 x12 - 4 x24 - 4 x48 - 1000 x310 - 120 x311 + [ - x110 * x300 - x116 * x301 - x122 * x302 - x128 * x303 
  - x134 * x304 - x140 * x305 - x146 * x306 - x152 * x307 - x158 * x308 - x164 * x309 ] >= -64750
 e87: - 5 x12 - 6 x24 - 3 x36 - x48 - 110 x310 - 150 x311 + [ - x111 * x300 - x117 * x301 - x123 * x302 
  - x129 * x303 - x135 * x304 - x141 * x305 - x147 * x306 - x153 * x307 - x159 * x308 - x165 * x309 ]
   >= -8880
 e88: - 2 x24 - 2 x36 - 2 x48 - 360 x310 - 400 x311 + [ - x112 * x300 - x118 * x301 - x124 * x302 - x130 * x303 
  - x136 * x304 - x142 * x305 - x148 * x306 - x154 * x307 - x160 * x308 - x166 * x309 ] >= -48100
 e89: - 8 x12 - 7 x36 - 3 x48 - 60 x310 - 115 x311 + [ - x113 * x300 - x119 * x301 - x125 * x302 - x131 * x303 
  - x137 * x304 - x143 * x305 - x149 * x306 - x155 * x307 - x161 * x308 - x167 * x309 ] >= -3885
 e90: - 2 x24 - 2 x48 - 678 x310 - 170 x311 + [ - x114 * x300 - x120 * x301 - x126 * x302 - x132 * x303 
  - x138 * x304 - x144 * x305 - x150 * x306 - x156 * x307 - x162 * x308 - x168 * x309 ] >= -51430
 e91: - 4 x12 - 2 x36 - 8 x48 - 50 x310 - 75 x311 + [ - x115 * x300 - x121 * x301 - x127 * x302 - x133 * x303 
  - x139 * x304 - x145 * x305 - x151 * x306 - x157 * x307 - x163 * x308 - x169 * x309 ] >= -2220
 e92: - 3 x13 - 4 x25 - 4 x49 - 1000 x322 - 120 x323 + [ - x110 * x312 - x116 * x313 - x122 * x314 - x128 * x315 
  - x134 * x316 - x140 * x317 - x146 * x318 - x152 * x319 - x158 * x320 - x164 * x321 ] >= -1900
 e93: - 5 x13 - 6 x25 - 3 x37 - x49 - 110 x322 - 150 x323 + [ - x111 * x312 - x117 * x313 - x123 * x314 
  - x129 * x315 - x135 * x316 - x141 * x317 - x147 * x318 - x153 * x319 - x159 * x320 - x165 * x321 ]
   >= -4750
 e94: - 2 x25 - 2 x37 - 2 x49 - 360 x322 - 400 x323 + [ - x112 * x312 - x118 * x313 - x124 * x314 - x130 * x315 
  - x136 * x316 - x142 * x317 - x148 * x318 - x154 * x319 - x160 * x320 - x166 * x321 ] >= -9500
 e95: - 8 x13 - 7 x37 - 3 x49 - 60 x322 - 115 x323 + [ - x113 * x312 - x119 * x313 - x125 * x314 - x131 * x315 
  - x137 * x316 - x143 * x317 - x149 * x318 - x155 * x319 - x161 * x320 - x167 * x321 ] >= -2850
 e96: - 2 x25 - 2 x49 - 678 x322 - 170 x323 + [ - x114 * x312 - x120 * x313 - x126 * x314 - x132 * x315 
  - x138 * x316 - x144 * x317 - x150 * x318 - x156 * x319 - x162 * x320 - x168 * x321 ] >= -6650
 e97: - 4 x13 - 2 x37 - 8 x49 - 50 x322 - 75 x323 + [ - x115 * x312 - x121 * x313 - x127 * x314 - x133 * x315 
  - x139 * x316 - x145 * x317 - x151 * x318 - x157 * x319 - x163 * x320 - x169 * x321 ] >= -1900
 e98: [ x50 * x170 - x110 * x170 ] = -3196
 e99: [ x51 * x170 - x111 * x170 ] = -11832
 e100: [ x52 * x170 - x112 * x170 ] = -8364
 e101: [ x53 * x170 - x113 * x170 ] = -136
 e102: [ x54 * x170 - x114 * x170 ] = -5712
 e103: [ x55 * x170 - x115 * x170 ] = -3400
 e104: [ x56 * x183 - x116 * x183 ] = -9250
 e105: [ x57 * x183 - x117 * x183 ] = -7030
 e106: [ x58 * x183 - x118 * x183 ] = -4070
 e107: [ x59 * x183 - x119 * x183 ] = -184556
 e108: [ x60 * x183 - x120 * x183 ] = -1924
 e109: [ x61 * x183 - x121 * x183 ] = -7252
 e110: [ x62 * x196 - x122 * x196 ] = -10080
 e111: [ x63 * x196 - x123 * x196 ] = -4914
 e112: [ x64 * x196 - x124 * x196 ] = -46242
 e113: [ x65 * x196 - x125 * x196 ] = -5418
 e114: [ x66 * x196 - x126 * x196 ] = -16506
 e115: [ x67 * x196 - x127 * x196 ] = -4284
 e116: [ x68 * x209 - x128 * x209 ] = -2376
 e117: [ x69 * x209 - x129 * x209 ] = -30096
 e118: [ x70 * x209 - x130 * x209 ] = -26840
 e119: [ x71 * x209 - x131 * x209 ] = -35904
 e120: [ x72 * x209 - x132 * x209 ] = -11880
 e121: [ x73 * x209 - x133 * x209 ] = -18568
 e122: [ x74 * x222 - x134 * x222 ] = -50000
 e123: [ x75 * x222 - x135 * x222 ] = -351200
 e124: [ x76 * x222 - x136 * x222 ] = -14000
 e125: [ x77 * x222 - x137 * x222 ] = -3500
 e126: [ x78 * x222 - x138 * x222 ] = -15800
 e127: [ x79 * x222 - x139 * x222 ] = -7800
 e128: [ x80 * x235 - x140 * x235 ] = -4400
 e129: [ x81 * x235 - x141 * x235 ] = -5500
 e130: [ x82 * x235 - x142 * x235 ] = -8250
 e131: [ x83 * x235 - x143 * x235 ] = -3300
 e132: [ x84 * x235 - x144 * x235 ] = -4400
 e133: [ x85 * x235 - x145 * x235 ] = -3300
 e134: [ x86 * x248 - x146 * x248 ] = -2300
 e135: [ x87 * x248 - x147 * x248 ] = -3800
 e136: [ x88 * x248 - x148 * x248 ] = -4100
 e137: [ x90 * x248 - x150 * x248 ] = -20000
 e138: [ x91 * x248 - x151 * x248 ] = -12600
 e139: [ x92 * x261 - x152 * x261 ] = -1300
 e140: [ x93 * x261 - x153 * x261 ] = -2600
 e141: [ x94 * x261 - x154 * x261 ] = -1820
 e142: [ x95 * x261 - x155 * x261 ] = -260000
 e143: [ x96 * x261 - x156 * x261 ] = -2600
 e144: [ x97 * x261 - x157 * x261 ] = -8944
 e145: [ x98 * x274 - x158 * x274 ] = -19600
 e146: [ x99 * x274 - x159 * x274 ] = -29400
 e147: [ x100 * x274 - x160 * x274 ] = -19600
 e148: [ x101 * x274 - x161 * x274 ] = -2646
 e149: [ x102 * x274 - x162 * x274 ] = -12740
 e150: [ x103 * x274 - x163 * x274 ] = -66248
 e151: [ x104 * x287 - x164 * x287 ] = -34500
 e152: [ x105 * x287 - x165 * x287 ] = -4025
 e153: [ x106 * x287 - x166 * x287 ] = -9775
 e154: [ x107 * x287 - x167 * x287 ] = -3450
 e155: [ x108 * x287 - x168 * x287 ] = -62790
 e156: [ x109 * x287 - x169 * x287 ] = -62560
 e157: [ x89 * x248 - x149 * x248 ] = 0

Bounds
 x2 <= 100000
 x3 <= 100000
 x4 <= 100000
 x5 <= 100000
 x6 <= 100000
 x7 <= 100000
 x8 <= 100000
 x9 <= 100000
 x10 <= 100000
 x11 <= 100000
 x12 <= 100000
 x13 <= 100000
 x14 <= 100000
 x15 <= 100000
 x16 <= 100000
 x17 <= 100000
 x18 <= 100000
 x19 <= 100000
 x20 <= 100000
 x21 <= 100000
 x22 <= 100000
 x23 <= 100000
 x24 <= 100000
 x25 <= 100000
 x26 <= 100000
 x27 <= 100000
 x28 <= 100000
 x29 <= 100000
 x30 <= 100000
 x31 <= 100000
 x32 <= 100000
 x33 <= 100000
 x34 <= 100000
 x35 <= 100000
 x36 <= 100000
 x37 <= 100000
 x38 <= 100000
 x39 <= 100000
 x40 <= 100000
 x41 <= 100000
 x42 <= 100000
 x43 <= 100000
 x44 <= 100000
 x45 <= 100000
 x46 <= 100000
 x47 <= 100000
 x48 <= 100000
 x49 <= 100000
 x50 <= 45
 x51 <= 52
 x52 <= 189
 x53 <= 33
 x54 <= 210
 x55 <= 24
 x56 <= 120
 x57 <= 30
 x58 <= 30
 x59 <= 12234
 x60 <= 98
 x61 <= 656
 x62 <= 142
 x63 <= 420
 x64 <= 200
 x65 <= 13
 x66 <= 637
 x67 <= 24
 x68 <= 20
 x69 <= 25
 x70 <= 15
 x71 <= 25
 x72 <= 454
 x73 <= 256
 x74 <= 350
 x75 <= 48
 x76 <= 260
 x77 <= 21
 x78 <= 278
 x79 <= 12
 x80 <= 20
 x81 <= 50
 x82 <= 100
 x83 <= 30
 x84 <= 70
 x85 <= 20
 x86 <= 45
 x87 <= 52
 x88 <= 189
 x89 <= 33
 x90 <= 210
 x91 <= 24
 x92 <= 120
 x93 <= 30
 x94 <= 30
 x95 <= 12234
 x96 <= 98
 x97 <= 656
 x98 <= 142
 x99 <= 420
 x100 <= 200
 x101 <= 13
 x102 <= 637
 x103 <= 24
 x104 <= 20
 x105 <= 25
 x106 <= 15
 x107 <= 25
 x108 <= 454
 x109 <= 256
 x110 <= 139
 x111 <= 400
 x112 <= 435
 x113 <= 37
 x114 <= 378
 x115 <= 124
 x116 <= 245
 x117 <= 125
 x118 <= 85
 x119 <= 14728
 x120 <= 124
 x121 <= 754
 x122 <= 222
 x123 <= 459
 x124 <= 567
 x125 <= 56
 x126 <= 768
 x127 <= 58
 x128 <= 47
 x129 <= 367
 x130 <= 320
 x131 <= 433
 x132 <= 589
 x133 <= 467
 x134 <= 850
 x135 <= 3560
 x136 <= 400
 x137 <= 56
 x138 <= 436
 x139 <= 90
 x140 <= 100
 x141 <= 150
 x142 <= 250
 x143 <= 90
 x144 <= 150
 x145 <= 80
 x146 <= 68
 x147 <= 90
 x148 <= 230
 x149 <= 33
 x150 <= 410
 x151 <= 150
 x152 <= 170
 x153 <= 130
 x154 <= 100
 x155 <= 22234
 x156 <= 198
 x157 <= 1000
 x158 <= 342
 x159 <= 720
 x160 <= 400
 x161 <= 40
 x162 <= 767
 x163 <= 700
 x164 <= 320
 x165 <= 60
 x166 <= 100
 x167 <= 55
 x168 <= 1000
 x169 <= 800
 x170 <= 34
 x171 <= 100000
 x172 <= 100000
 x173 <= 100000
 x174 <= 100000
 x175 <= 100000
 x176 <= 100000
 x177 <= 100000
 x178 <= 100000
 x179 <= 100000
 x180 <= 100000
 x181 <= 100000
 x182 <= 100000
 x183 <= 74
 x184 <= 100000
 x185 <= 100000
 x186 <= 100000
 x187 <= 100000
 x188 <= 100000
 x189 <= 100000
 x190 <= 100000
 x191 <= 100000
 x192 <= 100000
 x193 <= 100000
 x194 <= 100000
 x195 <= 100000
 x196 <= 126
 x197 <= 100000
 x198 <= 100000
 x199 <= 100000
 x200 <= 100000
 x201 <= 100000
 x202 <= 100000
 x203 <= 100000
 x204 <= 100000
 x205 <= 100000
 x206 <= 100000
 x207 <= 100000
 x208 <= 100000
 x209 <= 88
 x210 <= 100000
 x211 <= 100000
 x212 <= 100000
 x213 <= 100000
 x214 <= 100000
 x215 <= 100000
 x216 <= 100000
 x217 <= 100000
 x218 <= 100000
 x219 <= 100000
 x220 <= 100000
 x221 <= 100000
 x222 <= 100
 x223 <= 100000
 x224 <= 100000
 x225 <= 100000
 x226 <= 100000
 x227 <= 100000
 x228 <= 100000
 x229 <= 100000
 x230 <= 100000
 x231 <= 100000
 x232 <= 100000
 x233 <= 100000
 x234 <= 100000
 x235 <= 55
 x236 <= 100000
 x237 <= 100000
 x238 <= 100000
 x239 <= 100000
 x240 <= 100000
 x241 <= 100000
 x242 <= 100000
 x243 <= 100000
 x244 <= 100000
 x245 <= 100000
 x246 <= 100000
 x247 <= 100000
 x248 <= 100
 x249 <= 100000
 x250 <= 100000
 x251 <= 100000
 x252 <= 100000
 x253 <= 100000
 x254 <= 100000
 x255 <= 100000
 x256 <= 100000
 x257 <= 100000
 x258 <= 100000
 x259 <= 100000
 x260 <= 100000
 x261 <= 26
 x262 <= 100000
 x263 <= 100000
 x264 <= 100000
 x265 <= 100000
 x266 <= 100000
 x267 <= 100000
 x268 <= 100000
 x269 <= 100000
 x270 <= 100000
 x271 <= 100000
 x272 <= 100000
 x273 <= 100000
 x274 <= 98
 x275 <= 100000
 x276 <= 100000
 x277 <= 100000
 x278 <= 100000
 x279 <= 100000
 x280 <= 100000
 x281 <= 100000
 x282 <= 100000
 x283 <= 100000
 x284 <= 100000
 x285 <= 100000
 x286 <= 100000
 x287 <= 115
 x288 <= 100000
 x289 <= 100000
 x290 <= 100000
 x291 <= 100000
 x292 <= 100000
 x293 <= 100000
 x294 <= 100000
 x295 <= 100000
 x296 <= 100000
 x297 <= 100000
 x298 <= 100000
 x299 <= 100000
 x300 <= 100000
 x301 <= 100000
 x302 <= 100000
 x303 <= 100000
 x304 <= 100000
 x305 <= 100000
 x306 <= 100000
 x307 <= 100000
 x308 <= 100000
 x309 <= 100000
 x310 <= 100000
 x311 <= 100000
 x312 <= 100000
 x313 <= 100000
 x314 <= 100000
 x315 <= 100000
 x316 <= 100000
 x317 <= 100000
 x318 <= 100000
 x319 <= 100000
 x320 <= 100000
 x321 <= 100000
 x322 <= 100000
 x323 <= 100000
 x324 <= 100000
 x325 <= 100000
 x326 <= 100000
 x327 <= 100000
 x328 <= 100000
 x329 <= 100000
 x330 <= 100000
 x331 <= 100000
 x332 <= 100000
 x333 <= 100000
 x334 <= 100000
 x335 <= 100000

End
