\ Equation counts
\     Total        E        G        L        N        X        C        B
\       137      131        0        6        0        0        0        0
\ 
\ Variable counts
\                  x        b        i      s1s      s2s       sc       si
\     Total     cont   binary  integer     sos1     sos2    scont     sint
\       155      155        0        0        0        0        0        0
\ 
\ Nonzero counts
\     Total    const       NL      DLL
\       564      444      120        0
\ 
Minimize
 obj: x2 + x3 + x4 + x5 + x6 + 0 x7 + 0 x8 + 0 x9 + 0 x10 + 0 x11 + 0 x12 + 0 x13 + 0 x14 + 0 x15 + 0 x16 
  + 0 x17 + 0 x18 + 0 x19 + 0 x20 + 0 x21 + 0 x22 + 0 x23 + 0 x24 + 0 x25 + 0 x26 + 0 x27 + 0 x28 + 0 x29 
  + 0 x30 + 0 x31 + 0 x32 + 0 x33 + 0 x34 + 0 x35 + 0 x36 + 0 x37 + 0 x38 + 0 x39 + 0 x40 + 0 x41 + 0 x42 
  + 0 x43 + 0 x44 + 0 x45 + 0 x46 + 0 x47 + 0 x48 + 0 x49 + 0 x50 + 0 x51 + 0 x52 + 0 x53 + 0 x54 + 0 x55 
  + 0 x56 + 0 x57 + 0 x58 + 0 x59 + 0 x60 + 0 x61 + 0 x62 + 0 x63 + 0 x64 + 0 x65 + 0 x66 + 0 x67 + 0 x68 
  + 0 x69 + 0 x70 + 0 x71 + 0 x72 + 0 x73 + 0 x74 + 0 x75 + 0 x76 + 0 x77 + 0 x78 + 0 x79 + 0 x80 + 0 x81 
  + 0 x82 + 0 x83 + 0 x84 + 0 x85 + 0 x86 + 0 x87 + 0 x88 + 0 x89 + 0 x90 + 0 x91 + 0 x92 + 0 x93 + 0 x94 
  + 0 x95 + 0 x96 + 0 x97 + 0 x98 + 0 x99 + 0 x100 + 0 x101 + 0 x102 + 0 x103 + 0 x104 + 0 x105 + 0 x106 
  + 0 x107 + 0 x108 + 0 x109 + 0 x110 + 0 x111 + 0 x112 + 0 x113 + 0 x114 + 0 x115 + 0 x116 + 0 x117 
  + 0 x118 + 0 x119 + 0 x120 + 0 x121 + 0 x122 + 0 x123 + 0 x124 + 0 x125 + 0 x126 + 0 x127 + 0 x128 
  + 0 x129 + 0 x130 + 0 x131 + 0 x132 + 0 x133 + 0 x134 + 0 x135 + 0 x136 + 0 x137 + 0 x138 + 0 x139 
  + 0 x140 + 0 x141 + 0 x142 + 0 x143 + 0 x144 + 0 x145 + 0 x146 + 0 x147 + 0 x148 + 0 x149 + 0 x150 
  + 0 x151 + 0 x152 + 0 x153 + 0 x154 + 0 x155 + 0 x156

Subject To
 e2: - x7 - x8 - x9 - x10 - x11 - x12 = -80
 e3: - x13 - x14 - x15 - x16 - x17 - x18 = -60
 e4: - x19 - x20 - x21 - x22 - x23 - x24 = -130
 e5: x2 - x8 - x14 - x20 - x25 - x26 - x27 - x28 - x29 = 0
 e6: x3 - x9 - x15 - x21 - x30 - x31 - x32 - x33 - x34 = 0
 e7: x4 - x10 - x16 - x22 - x35 - x36 - x37 - x38 - x39 = 0
 e8: x5 - x11 - x17 - x23 - x40 - x41 - x42 - x43 - x44 = 0
 e9: x6 - x12 - x18 - x24 - x45 - x46 - x47 - x48 - x49 = 0
 e10: x2 - x25 - x30 - x35 - x40 - x45 - x50 = 0
 e11: x3 - x26 - x31 - x36 - x41 - x46 - x51 = 0
 e12: x4 - x27 - x32 - x37 - x42 - x47 - x52 = 0
 e13: x5 - x28 - x33 - x38 - x43 - x48 - x53 = 0
 e14: x6 - x29 - x34 - x39 - x44 - x49 - x54 = 0
 e15: - x7 - x13 - x19 - x50 - x51 - x52 - x53 - x54 + x55 = 0
 e16: - x56 - x57 - x58 - x59 - x60 - x61 = -960
 e17: - x62 - x63 - x64 - x65 - x66 - x67 = -3000
 e18: - x68 - x69 - x70 - x71 - x72 - x73 = -65000
 e19: - x57 + 960 x74 = 0
 e20: - x58 + 960 x75 = 0
 e21: - x59 + 960 x76 = 0
 e22: - x60 + 960 x77 = 0
 e23: - x61 + 960 x78 = 0
 e24: - x63 + 3000 x79 = 0
 e25: - x64 + 3000 x80 = 0
 e26: - x65 + 3000 x81 = 0
 e27: - x66 + 3000 x82 = 0
 e28: - x67 + 3000 x83 = 0
 e29: - x69 + 65000 x84 = 0
 e30: - x70 + 65000 x85 = 0
 e31: - x71 + 65000 x86 = 0
 e32: - x72 + 65000 x87 = 0
 e33: - x73 + 65000 x88 = 0
 e34: - x56 + 960 x89 = 0
 e35: - x62 + 3000 x90 = 0
 e36: - x68 + 65000 x91 = 0
 e37: - x8 + 80 x74 = 0
 e38: - x9 + 80 x75 = 0
 e39: - x10 + 80 x76 = 0
 e40: - x11 + 80 x77 = 0
 e41: - x12 + 80 x78 = 0
 e42: - x14 + 60 x79 = 0
 e43: - x15 + 60 x80 = 0
 e44: - x16 + 60 x81 = 0
 e45: - x17 + 60 x82 = 0
 e46: - x18 + 60 x83 = 0
 e47: - x20 + 130 x84 = 0
 e48: - x21 + 130 x85 = 0
 e49: - x22 + 130 x86 = 0
 e50: - x23 + 130 x87 = 0
 e51: - x24 + 130 x88 = 0
 e52: - x7 + 80 x89 = 0
 e53: - x13 + 60 x90 = 0
 e54: - x19 + 130 x91 = 0
 e55: x74 + x75 + x76 + x77 + x78 + x89 = 1
 e56: x79 + x80 + x81 + x82 + x83 + x90 = 1
 e57: x84 + x85 + x86 + x87 + x88 + x91 = 1
 e58: - 400 x2 + x57 + x63 + x69 + x92 + x93 + x94 + x95 + x96 <= 0
 e59: - 100 x3 + x58 + x64 + x70 + x97 + x98 + x99 + x100 + x101 <= 0
 e60: - 50 x4 + x59 + x65 + x71 + x102 + x103 + x104 + x105 + x106 <= 0
 e61: - 570 x5 + x60 + x66 + x72 + x107 + x108 + x109 + x110 + x111 <= 0
 e62: - 100 x6 + x61 + x67 + x73 + x112 + x113 + x114 + x115 + x116 <= 0
 e63: 0.9 x57 + 0.9 x63 + 0.9 x69 + 0.9 x92 + 0.9 x93 + 0.9 x94 + 0.9 x95 + 0.9 x96 - x117 = 0
 e64: 0.6 x58 + 0.6 x64 + 0.6 x70 + 0.6 x97 + 0.6 x98 + 0.6 x99 + 0.6 x100 + 0.6 x101 - x118 = 0
 e65: 0.15 x59 + 0.15 x65 + 0.15 x71 + 0.15 x102 + 0.15 x103 + 0.15 x104 + 0.15 x105 + 0.15 x106 - x119
   = 0
 e66: 0.26 x60 + 0.26 x66 + 0.26 x72 + 0.26 x107 + 0.26 x108 + 0.26 x109 + 0.26 x110 + 0.26 x111 - x120
   = 0
 e67: 0.1 x61 + 0.1 x67 + 0.1 x73 + 0.1 x112 + 0.1 x113 + 0.1 x114 + 0.1 x115 + 0.1 x116 - x121 = 0
 e68: - x92 - x97 - x102 - x107 - x112 + x117 - x122 = 0
 e69: - x93 - x98 - x103 - x108 - x113 + x118 - x123 = 0
 e70: - x94 - x99 - x104 - x109 - x114 + x119 - x124 = 0
 e71: - x95 - x100 - x105 - x110 - x115 + x120 - x125 = 0
 e72: - x96 - x101 - x106 - x111 - x116 + x121 - x126 = 0
 e73: x127 + x128 + x129 + x130 + x131 + x132 = 1
 e74: x133 + x134 + x135 + x136 + x137 + x138 = 1
 e75: x139 + x140 + x141 + x142 + x143 + x144 = 1
 e76: x145 + x146 + x147 + x148 + x149 + x150 = 1
 e77: x151 + x152 + x153 + x154 + x155 + x156 = 1
 e78: - 2 x55 + x56 + x62 + x68 + x122 + x123 + x124 + x125 + x126 <= 0
 e79: - x92 + [ x117 * x127 ] = 0
 e80: - x97 + [ x117 * x128 ] = 0
 e81: - x102 + [ x117 * x129 ] = 0
 e82: - x107 + [ x117 * x130 ] = 0
 e83: - x112 + [ x117 * x131 ] = 0
 e84: - x93 + [ x118 * x133 ] = 0
 e85: - x98 + [ x118 * x134 ] = 0
 e86: - x103 + [ x118 * x135 ] = 0
 e87: - x108 + [ x118 * x136 ] = 0
 e88: - x113 + [ x118 * x137 ] = 0
 e89: - x94 + [ x119 * x139 ] = 0
 e90: - x99 + [ x119 * x140 ] = 0
 e91: - x104 + [ x119 * x141 ] = 0
 e92: - x109 + [ x119 * x142 ] = 0
 e93: - x114 + [ x119 * x143 ] = 0
 e94: - x95 + [ x120 * x145 ] = 0
 e95: - x100 + [ x120 * x146 ] = 0
 e96: - x105 + [ x120 * x147 ] = 0
 e97: - x110 + [ x120 * x148 ] = 0
 e98: - x115 + [ x120 * x149 ] = 0
 e99: - x96 + [ x121 * x151 ] = 0
 e100: - x101 + [ x121 * x152 ] = 0
 e101: - x106 + [ x121 * x153 ] = 0
 e102: - x111 + [ x121 * x154 ] = 0
 e103: - x116 + [ x121 * x155 ] = 0
 e104: - x122 + [ x117 * x132 ] = 0
 e105: - x123 + [ x118 * x138 ] = 0
 e106: - x124 + [ x119 * x144 ] = 0
 e107: - x125 + [ x120 * x150 ] = 0
 e108: - x126 + [ x121 * x156 ] = 0
 e109: - x25 + [ x2 * x127 ] = 0
 e110: - x30 + [ x2 * x128 ] = 0
 e111: - x35 + [ x2 * x129 ] = 0
 e112: - x40 + [ x2 * x130 ] = 0
 e113: - x45 + [ x2 * x131 ] = 0
 e114: - x26 + [ x3 * x133 ] = 0
 e115: - x31 + [ x3 * x134 ] = 0
 e116: - x36 + [ x3 * x135 ] = 0
 e117: - x41 + [ x3 * x136 ] = 0
 e118: - x46 + [ x3 * x137 ] = 0
 e119: - x27 + [ x4 * x139 ] = 0
 e120: - x32 + [ x4 * x140 ] = 0
 e121: - x37 + [ x4 * x141 ] = 0
 e122: - x42 + [ x4 * x142 ] = 0
 e123: - x47 + [ x4 * x143 ] = 0
 e124: - x28 + [ x5 * x145 ] = 0
 e125: - x33 + [ x5 * x146 ] = 0
 e126: - x38 + [ x5 * x147 ] = 0
 e127: - x43 + [ x5 * x148 ] = 0
 e128: - x48 + [ x5 * x149 ] = 0
 e129: - x29 + [ x6 * x151 ] = 0
 e130: - x34 + [ x6 * x152 ] = 0
 e131: - x39 + [ x6 * x153 ] = 0
 e132: - x44 + [ x6 * x154 ] = 0
 e133: - x49 + [ x6 * x155 ] = 0
 e134: - x50 + [ x2 * x132 ] = 0
 e135: - x51 + [ x3 * x138 ] = 0
 e136: - x52 + [ x4 * x144 ] = 0
 e137: - x53 + [ x5 * x150 ] = 0
 e138: - x54 + [ x6 * x156 ] = 0

Bounds
 x2 <= 1000000
 x3 <= 1000000
 x4 <= 1000000
 x5 <= 1000000
 x6 <= 1000000
 x7 <= 1000000
 x8 <= 1000000
 x9 <= 1000000
 x10 <= 1000000
 x11 <= 1000000
 x12 <= 1000000
 x13 <= 1000000
 x14 <= 1000000
 x15 <= 1000000
 x16 <= 1000000
 x17 <= 1000000
 x18 <= 1000000
 x19 <= 1000000
 x20 <= 1000000
 x21 <= 1000000
 x22 <= 1000000
 x23 <= 1000000
 x24 <= 1000000
 x25 <= 1000000
 x26 <= 1000000
 x27 <= 1000000
 x28 <= 1000000
 x29 <= 1000000
 x30 <= 1000000
 x31 <= 1000000
 x32 <= 1000000
 x33 <= 1000000
 x34 <= 1000000
 x35 <= 1000000
 x36 <= 1000000
 x37 <= 1000000
 x38 <= 1000000
 x39 <= 1000000
 x40 <= 1000000
 x41 <= 1000000
 x42 <= 1000000
 x43 <= 1000000
 x44 <= 1000000
 x45 <= 1000000
 x46 <= 1000000
 x47 <= 1000000
 x48 <= 1000000
 x49 <= 1000000
 x50 <= 1000000
 x51 <= 1000000
 x52 <= 1000000
 x53 <= 1000000
 x54 <= 1000000
 x55 <= 1000000
 x56 <= 1000000
 x57 <= 1000000
 x58 <= 1000000
 x59 <= 1000000
 x60 <= 1000000
 x61 <= 1000000
 x62 <= 1000000
 x63 <= 1000000
 x64 <= 1000000
 x65 <= 1000000
 x66 <= 1000000
 x67 <= 1000000
 x68 <= 1000000
 x69 <= 1000000
 x70 <= 1000000
 x71 <= 1000000
 x72 <= 1000000
 x73 <= 1000000
 x74 <= 1000000
 x75 <= 1000000
 x76 <= 1000000
 x77 <= 1000000
 x78 <= 1000000
 x79 <= 1000000
 x80 <= 1000000
 x81 <= 1000000
 x82 <= 1000000
 x83 <= 1000000
 x84 <= 1000000
 x85 <= 1000000
 x86 <= 1000000
 x87 <= 1000000
 x88 <= 1000000
 x89 <= 1000000
 x90 <= 1000000
 x91 <= 1000000
 x92 <= 1000000
 x93 <= 1000000
 x94 <= 1000000
 x95 <= 1000000
 x96 <= 1000000
 x97 <= 1000000
 x98 <= 1000000
 x99 <= 1000000
 x100 <= 1000000
 x101 <= 1000000
 x102 <= 1000000
 x103 <= 1000000
 x104 <= 1000000
 x105 <= 1000000
 x106 <= 1000000
 x107 <= 1000000
 x108 <= 1000000
 x109 <= 1000000
 x110 <= 1000000
 x111 <= 1000000
 x112 <= 1000000
 x113 <= 1000000
 x114 <= 1000000
 x115 <= 1000000
 x116 <= 1000000
 x117 <= 1000000
 x118 <= 1000000
 x119 <= 1000000
 x120 <= 1000000
 x121 <= 1000000
 x122 <= 1000000
 x123 <= 1000000
 x124 <= 1000000
 x125 <= 1000000
 x126 <= 1000000
 x127 <= 1000000
 x128 <= 1000000
 x129 <= 1000000
 x130 <= 1000000
 x131 <= 1000000
 x132 <= 1000000
 x133 <= 1000000
 x134 <= 1000000
 x135 <= 1000000
 x136 <= 1000000
 x137 <= 1000000
 x138 <= 1000000
 x139 <= 1000000
 x140 <= 1000000
 x141 <= 1000000
 x142 <= 1000000
 x143 <= 1000000
 x144 <= 1000000
 x145 <= 1000000
 x146 <= 1000000
 x147 <= 1000000
 x148 <= 1000000
 x149 <= 1000000
 x150 <= 1000000
 x151 <= 1000000
 x152 <= 1000000
 x153 <= 1000000
 x154 <= 1000000
 x155 <= 1000000
 x156 <= 1000000

End
